%chk=_s_4c3_c.chk
%mem=60000mb
%nprocshared=32

#P PBE1PBE/Def2SVP SP  SCF=(YQC,MaxCycle=900) int=(Grid=Superfinegrid) EmpiricalDispersion=GD3BJ SCRF=(PCM,Solvent=DiMethylSulfoxide)

_s_4c3_c

4 1
Pd 0.5641 6.7958 0.0283
Pd 0.2134 -7.0045 -0.9648
C 5.3267 -4.0156 -1.5229
C 4.8899 -4.5231 -2.5305
C 4.4854 -5.1976 -3.7013
C 5.2515 -5.1228 -4.8489
C 4.9328 -5.8854 -5.9786
C 3.8732 -6.7579 -5.9686
C 3.0626 -6.8625 -4.8239
C 1.9814 -7.7662 -4.7207
C 1.2306 -7.8048 -3.5813
N 1.4504 -6.9598 -2.5413
C 2.4649 -6.1167 -2.5933
C 3.3379 -6.0452 -3.6899
H 6.118 -4.4796 -4.866
H 5.5513 -5.7989 -6.8589
H 3.6548 -7.3732 -6.8272
H 1.7629 -8.4281 -5.5433
H 0.4191 -8.5157 -3.461
H 2.6152 -5.4552 -1.743
C 5.9038 -3.4888 -0.3459
C 6.9228 -4.238 0.2706
C 7.5537 -3.7877 1.4094
C 7.1583 -2.5621 1.9291
N 7.6287 -1.8884 3.0259
C 6.9755 -0.6933 3.1364
C 7.1442 0.3231 4.0704
C 6.3727 1.4549 3.9377
C 5.4359 1.5821 2.8932
C 5.2501 0.5548 1.9676
C 6.0246 -0.5855 2.0882
C 6.1393 -1.7935 1.3138
C 5.5029 -2.2621 0.1746
H 7.2133 -5.1807 -0.1677
H 8.3371 -4.3661 1.8746
H 8.3728 -2.2026 3.6267
H 7.8668 0.2339 4.8672
H 6.4873 2.2685 4.6378
H 4.5316 0.6605 1.1708
H 4.7293 -1.6876 -0.3086
C 4.7162 2.7834 2.7752
C 4.1303 3.8368 2.6661
C 3.5012 5.0862 2.551
C 3.8271 6.1423 3.4166
C 3.2055 7.3655 3.252
C 2.2737 7.5206 2.2365
N 1.9601 6.5115 1.4173
C 2.5441 5.3246 1.5583
H 4.5589 5.9903 4.1944
H 3.439 8.1944 3.9003
H 1.7636 8.4663 2.0671
H 2.2528 4.5441 0.8585
C 0.998 -4.28 4.1416
C 1.9597 -4.912 3.7663
C 3.026 -5.7681 3.4183
C 4.1085 -5.9244 4.2623
C 5.0832 -6.897 4.0083
C 4.98 -7.7457 2.9341
C 3.9023 -7.6147 2.0396
C 3.6992 -8.4688 0.9322
C 2.6231 -8.2824 0.1119
N 1.7528 -7.2564 0.2881
C 1.909 -6.4411 1.3147
C 2.9372 -6.5898 2.2551
H 4.1882 -5.3052 5.1426
H 5.914 -6.9935 4.6907
H 5.7119 -8.5204 2.7683
H 4.3921 -9.2746 0.7497
H 2.4203 -8.9433 -0.7249
H 1.2048 -5.619 1.4236
C -0.1314 -3.6554 4.7184
C -0.8283 -4.4004 5.6886
C -1.9009 -3.8674 6.3665
C -2.2708 -2.563 6.069
N -3.2538 -1.7927 6.6306
C -3.2348 -0.5522 6.062
C -4.0207 0.5585 6.3466
C -3.7882 1.7118 5.6348
C -2.791 1.7673 4.6421
C -2.0074 0.6513 4.3486
C -2.2248 -0.5123 5.066
C -1.5965 -1.8089 5.0775
C -0.5216 -2.3601 4.3948
H -0.4963 -5.4031 5.9111
H -2.4217 -4.4383 7.1198
H -3.8496 -2.076 7.3906
H -4.7798 0.5188 7.1127
H -4.3686 2.5989 5.8372
H -1.2416 0.7054 3.5924
H 0.0169 -1.7928 3.6533
C -2.5658 2.9921 3.9919
C -2.3687 4.0786 3.4968
C -2.0895 5.3458 2.9624
C -2.7354 6.5014 3.4301
C -2.3913 7.7289 2.8971
C -1.416 7.7941 1.9121
N -0.809 6.6928 1.4634
C -1.1259 5.4988 1.9609
H -3.4856 6.4205 4.2009
H -2.8685 8.6323 3.2407
H -1.1109 8.7362 1.4653
H -0.5961 4.6365 1.5585
C -4.534 3.8926 -0.3165
C -4.2911 4.6153 -1.2566
C -4.1074 5.5609 -2.2875
C -5.0916 5.7605 -3.2369
C -4.9965 6.8063 -4.1627
C -3.9423 7.6854 -4.138
C -2.9113 7.5155 -3.1964
C -1.8133 8.397 -3.0764
C -0.8546 8.1713 -2.1303
N -0.8852 7.0833 -1.32
C -1.8976 6.2399 -1.4015
C -2.9678 6.4194 -2.2883
H -5.9562 5.1148 -3.2472
H -5.7849 6.9334 -4.8891
H -3.8957 8.5137 -4.8273
H -1.7476 9.254 -3.7275
H -0.0186 8.8494 -1.9893
H -1.8883 5.3696 -0.7489
C -4.9659 3.1579 0.8114
C -5.9241 3.7851 1.6305
C -6.4683 3.141 2.7179
C -6.0501 1.8429 2.9766
N -6.4719 0.9765 3.9493
C -5.8243 -0.2156 3.8029
C -5.9665 -1.3889 4.5344
C -5.2009 -2.4714 4.1705
C -4.2946 -2.3954 3.0951
C -4.1447 -1.2165 2.3648
C -4.9175 -0.1226 2.715
C -5.0703 1.2052 2.1763
C -4.5207 1.8696 1.0889
H -6.243 4.7865 1.3838
H -7.2119 3.6223 3.3344
H -7.1954 1.1679 4.6223
H -6.6663 -1.4502 5.3538
H -5.2935 -3.4041 4.7056
H -3.454 -1.1698 1.539
H -3.7899 1.3923 0.4567
C -3.586 -3.5567 2.7444
C -3.0431 -4.5982 2.4526
C -2.4644 -5.8175 2.068
C -2.7903 -7.0212 2.7134
C -2.2265 -8.2007 2.2665
C -1.3531 -8.1719 1.1885
N -1.0393 -7.0252 0.5808
C -1.5669 -5.8755 0.9975
H -3.4791 -7.0141 3.5434
H -2.462 -9.1391 2.7418
H -0.8886 -9.0736 0.7991
H -1.2756 -4.9726 0.4629
C 0.5411 4.0677 -5.254
C 1.5787 4.5995 -4.9315
C 2.7678 5.305 -4.6527
C 3.804 5.3146 -5.567
C 4.9384 6.1084 -5.3616
C 5.0405 6.9285 -4.2656
C 4.0123 6.9465 -3.306
C 4.0244 7.7921 -2.1741
C 2.9958 7.7475 -1.2778
N 1.9651 6.8722 -1.4029
C 1.9093 6.0816 -2.4587
C 2.8807 6.0969 -3.4714
H 3.7273 4.7138 -6.4603
H 5.73 6.0883 -6.0952
H 5.8986 7.568 -4.131
H 4.8457 8.4761 -2.0316
H 2.9614 8.4123 -0.4203
H 1.0694 5.394 -2.5298
C -0.6822 3.5117 -5.6904
C -1.4776 4.2842 -6.5564
C -2.6734 3.8073 -7.0469
C -3.0692 2.532 -6.6656
N -4.189 1.8249 -7.0186
C -4.1444 0.5887 -6.4381
C -5.0425 -0.4683 -6.5387
C -4.7441 -1.6337 -5.8705
C -3.5691 -1.7552 -5.1028
C -2.6766 -0.6893 -4.9843
C -2.964 0.4854 -5.6566
C -2.2744 1.7406 -5.7997
C -1.0779 2.235 -5.3035
H -1.133 5.2664 -6.8424
H -3.2761 4.4037 -7.7145
H -4.9072 2.1478 -7.6456
H -5.9399 -0.3829 -7.1324
H -5.4133 -2.478 -5.9371
H -1.7792 -0.7909 -4.3957
H -0.4587 1.6438 -4.6484
C -3.2893 -2.9858 -4.4846
C -3.043 -4.06 -3.9844
C -2.7736 -5.3289 -3.4485
C -3.6195 -6.4191 -3.7071
C -3.3046 -7.6569 -3.1795
C -2.1618 -7.7927 -2.4055
N -1.3604 -6.7519 -2.1562
C -1.644 -5.5508 -2.6528
H -4.4999 -6.281 -4.3149
H -3.9347 -8.5116 -3.3645
H -1.8734 -8.748 -1.9725
H -0.9513 -4.7442 -2.4216

