%chk=cis_l1_ld_FINAL.chk
%nprocshared=48
%mem=120GB
# SP PBE1PBE/def2svp empiricaldispersion=GD3BJ scrf=(solvent=dmso)

cis_l1_ld

4 1
 Pd                -7.54930000   -0.11440000   -0.04160000
 Pd                 7.54950000   -0.11390000   -0.04150000
 C                 -5.06140000    1.56350000   -0.47780000
 N                 -6.12170000    1.30430000    0.30020000
 C                 -6.21690000    1.91200000    1.49650000
 C                 -5.25670000    2.79280000    1.95280000
 C                 -4.12230000    3.05950000    1.17160000
 C                 -3.05680000    3.93930000    1.67880000
 C                 -3.38530000    5.03740000    2.50370000
 C                 -2.41150000    5.85550000    3.06190000
 C                 -1.09160000    5.53000000    2.78640000
 O                 -0.00020000    6.18050000    3.26980000
 C                  1.09120000    5.52990000    2.78660000
 C                  2.41110000    5.85530000    3.06230000
 C                  3.38490000    5.03720000    2.50420000
 C                  3.05640000    3.93920000    1.67920000
 C                  4.12200000    3.05930000    1.17200000
 C                  5.25640000    2.79260000    1.95340000
 C                  6.21660000    1.91180000    1.49700000
 N                  6.12160000    1.30450000    0.30060000
 C                  5.06130000    1.56370000   -0.47750000
 C                  4.04960000    2.42230000   -0.07590000
 C                  1.71560000    3.65370000    1.39330000
 C                  0.72440000    4.44820000    1.96470000
 C                 -0.72480000    4.44820000    1.96460000
 C                 -1.71590000    3.65380000    1.39310000
 C                 -4.04970000    2.42220000   -0.07630000
 H                 -5.03060000    1.07610000   -1.45380000
 H                 -7.09000000    1.67070000    2.10680000
 H                 -5.37930000    3.23490000    2.94150000
 H                 -4.43540000    5.27140000    2.68840000
 H                 -2.66820000    6.71180000    3.68610000
 H                  2.66770000    6.71160000    3.68650000
 H                  4.43500000    5.27110000    2.68910000
 H                  5.37880000    3.23450000    2.94220000
 H                  7.08960000    1.67060000    2.10740000
 H                  5.03060000    1.07650000   -1.45350000
 H                  3.21620000    2.60540000   -0.75510000
 H                  1.44930000    2.79520000    0.77390000
 H                 -1.44950000    2.79530000    0.77380000
 H                 -3.21630000    2.60520000   -0.75530000
 C                 -5.19090000   -1.79960000   -0.33220000
 N                 -6.14710000   -1.46510000    0.55060000
 C                 -6.13800000   -2.02630000    1.76850000
 C                 -5.16420000   -2.93820000    2.14350000
 C                 -4.13970000   -3.28170000    1.24860000
 C                 -3.06380000   -4.21290000    1.64000000
 C                 -3.38430000   -5.37300000    2.37710000
 C                 -2.40530000   -6.26010000    2.80750000
 C                 -1.09010000   -5.92890000    2.51390000
 O                  0.00030000   -6.62930000    2.92140000
 C                  1.09060000   -5.92890000    2.51390000
 C                  2.40580000   -6.26010000    2.80750000
 C                  3.38480000   -5.37310000    2.37710000
 C                  3.06430000   -4.21290000    1.64000000
 C                  4.14020000   -3.28180000    1.24860000
 C                  4.17750000   -2.68870000   -0.02080000
 C                  5.19130000   -1.79950000   -0.33220000
 N                  6.14750000   -1.46500000    0.55070000
 C                  6.13840000   -2.02630000    1.76850000
 C                  5.16470000   -2.93820000    2.14350000
 C                  1.72960000   -3.92270000    1.32550000
 C                  0.72690000   -4.77590000    1.79130000
 C                 -0.72640000   -4.77590000    1.79130000
 C                 -1.72900000   -3.92270000    1.32550000
 C                 -4.17700000   -2.68870000   -0.02080000
 H                 -5.25370000   -1.34930000   -1.32460000
 H                 -6.93020000   -1.72680000    2.45710000
 H                 -5.19120000   -3.35240000    3.15210000
 H                 -4.43050000   -5.58890000    2.60380000
 H                 -2.65170000   -7.16190000    3.36890000
 H                  2.65220000   -7.16190000    3.36880000
 H                  4.43100000   -5.58900000    2.60370000
 H                  3.43620000   -2.93840000   -0.78100000
 H                  5.25410000   -1.34920000   -1.32450000
 H                  6.93060000   -1.72670000    2.45710000
 H                  5.19180000   -3.35250000    3.15200000
 H                  1.47660000   -3.01530000    0.77340000
 H                 -1.47610000   -3.01530000    0.77340000
 H                 -3.43570000   -2.93840000   -0.78100000
 C                 11.06950000   -2.26560000    1.00720000
 C                 10.81310000   -3.61230000    0.64610000
 C                  9.57180000   -3.89560000    0.00410000
 C                  9.20100000   -5.24590000   -0.29060000
 C                 10.08600000   -6.25380000    0.03390000
 C                 11.33890000   -5.96640000    0.62290000
 C                 11.70220000   -4.67530000    0.93130000
 C                  7.84340000   -5.52010000   -0.81630000
 C                  6.90910000   -6.17070000    0.00100000
 C                  5.58190000   -6.28360000   -0.39040000
 C                  5.15700000   -5.74040000   -1.61570000
 C                  3.78260000   -5.73930000   -1.96880000
 C                  2.60110000   -5.66730000   -2.26470000
 C                  1.24470000   -5.56330000   -2.61090000
 C                  0.70340000   -5.14180000   -3.81770000
 C                 -0.70240000   -5.14180000   -3.81770000
 C                 -1.24370000   -5.56330000   -2.61090000
 C                 -2.60010000   -5.66730000   -2.26470000
 C                 -3.78160000   -5.73940000   -1.96880000
 C                 -5.15600000   -5.74070000   -1.61550000
 C                 -5.58070000   -6.28400000   -0.39020000
 C                 -6.90780000   -6.17120000    0.00130000
 C                 -7.84220000   -5.52070000   -0.81590000
 C                 -9.19990000   -5.24680000   -0.29000000
 C                 -9.57090000   -3.89650000    0.00460000
 C                -10.81220000   -3.61330000    0.64670000
 C                -11.06880000   -2.26670000    1.00760000
 C                -10.14240000   -1.29440000    0.74390000
 N                 -8.97240000   -1.57280000    0.09660000
 C                 -8.70270000   -2.81620000   -0.25690000
 C                -11.70100000   -4.67650000    0.93220000
 C                -11.33750000   -5.96750000    0.62390000
 C                -10.08460000   -6.25480000    0.03480000
 C                 -7.43130000   -5.03980000   -2.06760000
 C                 -6.10650000   -5.14550000   -2.46600000
 S                  0.00050000   -5.95980000   -1.46830000
 C                  6.10740000   -5.14510000   -2.46630000
 C                  7.43220000   -5.03920000   -2.06800000
 C                  8.70340000   -2.81550000   -0.25710000
 N                  8.97280000   -1.57210000    0.09650000
 C                 10.14280000   -1.29340000    0.74370000
 H                 11.99560000   -2.00040000    1.51940000
 H                  9.81320000   -7.29170000   -0.16880000
 H                 12.01930000   -6.79040000    0.84830000
 H                 12.66030000   -4.45980000    1.40820000
 H                  7.22140000   -6.55370000    0.97510000
 H                  4.85410000   -6.76520000    0.26440000
 H                  1.32270000   -4.84590000   -4.66450000
 H                 -1.32170000   -4.84590000   -4.66450000
 H                 -4.85270000   -6.76540000    0.26460000
 H                 -7.21990000   -6.55420000    0.97550000
 H                -11.99490000   -2.00150000    1.51990000
 H                -10.30030000   -0.25700000    1.04040000
 H                 -7.74870000   -2.99370000   -0.75120000
 H                -12.65910000   -4.46110000    1.40910000
 H                -12.01780000   -6.79170000    0.84940000
 H                 -9.81170000   -7.29260000   -0.16790000
 H                 -8.15610000   -4.55600000   -2.72670000
 H                 -5.78970000   -4.74440000   -3.43020000
 H                  5.79040000   -4.74400000   -3.43050000
 H                  8.15690000   -4.55530000   -2.72720000
 H                  7.74940000   -2.99310000   -0.75150000
 H                 10.30060000   -0.25610000    1.04030000
 C                 10.91920000    1.69330000   -2.02350000
 C                 10.70140000    3.09110000   -1.94660000
 C                  9.45230000    3.52130000   -1.41280000
 C                  9.10480000    4.90980000   -1.40980000
 C                 10.06810000    5.81910000   -1.80610000
 C                 11.33360000    5.39430000   -2.26920000
 C                 11.64170000    4.05640000   -2.37480000
 C                  7.72820000    5.35010000   -1.09520000
 C                  6.64600000    4.77340000   -1.78170000
 C                  5.35040000    5.21990000   -1.57610000
 C                  5.09110000    6.25920000   -0.66310000
 C                  3.75760000    6.70590000   -0.46730000
 C                  2.59670000    7.04470000   -0.30240000
 C                  1.24650000    7.37170000   -0.09740000
 C                  0.70280000    8.33990000    0.73450000
 C                 -0.70450000    8.34000000    0.73430000
 C                 -1.24800000    7.37170000   -0.09760000
 C                 -2.59820000    7.04470000   -0.30290000
 C                 -3.75910000    6.70580000   -0.46790000
 C                 -5.09250000    6.25900000   -0.66360000
 C                 -5.35170000    5.21960000   -1.57660000
 C                 -6.64730000    4.77290000   -1.78220000
 C                 -7.72950000    5.34940000   -1.09560000
 C                 -9.10600000    4.90880000   -1.41010000
 C                 -9.45320000    3.52030000   -1.41300000
 C                -10.70220000    3.08980000   -1.94660000
 C                -10.91960000    1.69190000   -2.02360000
 C                 -9.99100000    0.82000000   -1.52320000
 N                 -8.86440000    1.24690000   -0.87720000
 C                 -8.60810000    2.54430000   -0.84720000
 C                -11.64280000    4.05480000   -2.37490000
 C                -11.33500000    5.39280000   -2.26930000
 C                -10.06960000    5.81790000   -1.80630000
 C                 -7.47030000    6.38420000   -0.18510000
 C                 -6.17300000    6.83010000    0.03590000
 S                 -0.00070000    6.46330000   -0.89410000
 C                  6.17150000    6.83040000    0.03650000
 C                  7.46890000    6.38480000   -0.18460000
 C                  8.60750000    2.54510000   -0.84710000
 N                  8.86420000    1.24770000   -0.87710000
 C                  9.99080000    0.82110000   -1.52310000
 H                 11.82620000    1.30170000   -2.48690000
 H                  9.82760000    6.88440000   -1.81190000
 H                 12.06030000    6.14600000   -2.58500000
 H                 12.60130000    3.72960000   -2.78010000
 H                  6.82810000    3.98390000   -2.51470000
 H                  4.52370000    4.77430000   -2.13150000
 H                  1.32030000    9.00990000    1.33260000
 H                 -1.32210000    9.00990000    1.33230000
 H                 -4.52500000    4.77410000   -2.13210000
 H                 -6.82930000    3.98340000   -2.51510000
 H                -11.82650000    1.30000000   -2.48690000
 H                -10.12800000   -0.25560000   -1.61260000
 H                 -7.70330000    2.86770000   -0.33830000
 H                -12.60230000    3.72770000   -2.78010000
 H                -12.06190000    6.14420000   -2.58510000
 H                 -9.82940000    6.88330000   -1.81220000
 H                 -8.29790000    6.83850000    0.36440000
 H                 -5.98490000    7.63090000    0.75330000
 H                  5.98340000    7.63110000    0.75390000
 H                  8.29640000    6.83920000    0.36490000
 H                  7.70260000    2.86820000   -0.33800000
 H                 10.12810000   -0.25440000   -1.61250000

 1 4 1.0 43 1.0 109 1.0 172 1.0
 2 20 1.0 59 1.0 120 1.0 183 1.0
 3 4 1.5 27 1.5 28 1.0
 4 5 1.5
 5 6 2.0 29 1.0
 6 7 1.5 30 1.0
 7 8 1.0 27 1.5
 8 9 1.5 26 1.5
 9 10 1.5 31 1.0
 10 11 1.5 32 1.0
 11 12 1.0 25 1.5
 12 13 1.0
 13 14 1.5 24 1.5
 14 15 1.5 33 1.0
 15 16 1.5 34 1.0
 16 17 1.0 23 1.5
 17 18 1.5 22 1.5
 18 19 2.0 35 1.0
 19 20 1.5 36 1.0
 20 21 1.5
 21 22 1.5 37 1.0
 22 38 1.0
 23 24 1.5 39 1.0
 24 25 1.0
 25 26 1.5
 26 40 1.0
 27 41 1.0
 28
 29
 30
 31
 32
 33
 34
 35
 36
 37
 38
 39
 40
 41
 42 43 1.5 66 2.0 67 1.0
 43 44 1.5
 44 45 2.0 68 1.0
 45 46 1.5 69 1.0
 46 47 1.0 66 1.5
 47 48 1.5 65 1.5
 48 49 1.5 70 1.0
 49 50 1.5 71 1.0
 50 51 1.0 64 1.5
 51 52 1.0
 52 53 1.5 63 1.5
 53 54 1.5 72 1.0
 54 55 1.5 73 1.0
 55 56 1.0 62 1.5
 56 57 1.5 61 1.5
 57 58 2.0 74 1.0
 58 59 1.5 75 1.0
 59 60 1.5
 60 61 2.0 76 1.0
 61 77 1.0
 62 63 1.5 78 1.0
 63 64 1.0
 64 65 1.5
 65 79 1.0
 66 80 1.0
 67
 68
 69
 70
 71
 72
 73
 74
 75
 76
 77
 78
 79
 80
 81 82 1.5 121 2.0 122 1.0
 82 83 1.5 87 1.5
 83 84 1.5 119 1.5
 84 85 2.0 88 1.0
 85 86 1.5 123 1.0
 86 87 2.0 124 1.0
 87 125 1.0
 88 89 1.5 118 1.5
 89 90 1.5 126 1.0
 90 91 1.5 127 1.0
 91 92 1.5 117 1.5
 92 93 3.0
 93 94 1.5
 94 95 1.5 116 1.0
 95 96 1.5 128 1.0
 96 97 1.5 129 1.0
 97 98 1.5 116 1.0
 98 99 3.0
 99 100 1.5
 100 101 1.5 115 1.5
 101 102 1.5 130 1.0
 102 103 1.5 131 1.0
 103 104 1.0 114 1.5
 104 105 1.5 113 2.0
 105 106 1.5 110 1.5
 106 107 1.5 111 1.5
 107 108 2.0 132 1.0
 108 109 1.5 133 1.0
 109 110 2.0
 110 134 1.0
 111 112 2.0 135 1.0
 112 113 1.5 136 1.0
 113 137 1.0
 114 115 1.5 138 1.0
 115 139 1.0
 116
 117 118 1.5 140 1.0
 118 141 1.0
 119 120 2.0 142 1.0
 120 121 1.5
 121 143 1.0
 122
 123
 124
 125
 126
 127
 128
 129
 130
 131
 132
 133
 134
 135
 136
 137
 138
 139
 140
 141
 142
 143
 144 145 1.5 184 2.0 185 1.0
 145 146 1.5 150 1.5
 146 147 1.5 182 1.5
 147 148 2.0 151 1.0
 148 149 1.5 186 1.0
 149 150 2.0 187 1.0
 150 188 1.0
 151 152 1.5 181 1.5
 152 153 2.0 189 1.0
 153 154 1.5 190 1.0
 154 155 1.5 180 1.5
 155 156 3.0
 156 157 1.5
 157 158 1.5 179 1.0
 158 159 1.5 191 1.0
 159 160 1.5 192 1.0
 160 161 1.5 179 1.0
 161 162 3.0
 162 163 1.5
 163 164 1.5 178 1.5
 164 165 2.0 193 1.0
 165 166 1.5 194 1.0
 166 167 1.0 177 1.5
 167 168 1.5 176 2.0
 168 169 1.5 173 1.5
 169 170 1.5 174 1.5
 170 171 2.0 195 1.0
 171 172 1.5 196 1.0
 172 173 2.0
 173 197 1.0
 174 175 2.0 198 1.0
 175 176 1.5 199 1.0
 176 200 1.0
 177 178 1.5 201 1.0
 178 202 1.0
 179
 180 181 1.5 203 1.0
 181 204 1.0
 182 183 2.0 205 1.0
 183 184 1.5
 184 206 1.0
 185
 186
 187
 188
 189
 190
 191
 192
 193
 194
 195
 196
 197
 198
 199
 200
 201
 202
 203
 204
 205
 206

