%chk=_s_5a3_d.chk
%mem=60000mb
%nprocshared=32

#P PBE1PBE/Def2SVP SP  SCF=(YQC,MaxCycle=900) int=(Grid=Superfinegrid) EmpiricalDispersion=GD3BJ SCRF=(PCM,Solvent=DiMethylSulfoxide)

_s_5a3_d

4 1
Pd -0.1518 5.3088 -0.0747
Pd 0.3189 -7.9791 0.059
C 7.2635 -4.5239 -0.1198
C 6.8936 -5.6751 -0.0943
C 6.4214 -7.0009 -0.064
C 7.295 -8.0744 -0.0604
C 6.82 -9.3905 -0.0303
C 5.4749 -9.6564 -0.0036
C 4.5509 -8.5901 -0.0064
C 3.1577 -8.796 0.0203
N 2.294 -7.8047 0.0181
C 2.7313 -6.5193 -0.0108
C 4.0613 -6.2118 -0.0382
C 5.0193 -7.2461 -0.0367
H 8.3587 -7.8913 -0.0811
H 7.5318 -10.2017 -0.0283
H 5.1153 -10.6728 0.0195
H 2.7578 -9.8058 0.044
H 1.9574 -5.75 -0.011
H 4.3981 -5.1879 -0.0611
C 7.683 -3.1787 -0.15
C 9.0654 -2.873 -0.1862
C 9.4803 -1.5734 -0.2161
C 8.5498 -0.5115 -0.2118
C 8.955 0.8408 -0.2426
C 8.0371 1.85 -0.2378
C 6.652 1.5526 -0.2012
C 6.227 0.2406 -0.1705
C 7.1601 -0.8136 -0.1752
C 6.7522 -2.1603 -0.1448
H 9.7819 -3.6809 -0.1897
H 10.5349 -1.3388 -0.2438
H 10.0119 1.064 -0.2703
H 8.3537 2.8818 -0.2616
H 5.1726 0.0124 -0.1428
H 5.6978 -2.3889 -0.1171
C 5.7239 2.612 -0.1966
C 4.9317 3.5258 -0.1921
C 4.0529 4.6244 -0.1882
C 4.5453 5.9366 -0.226
C 3.6512 6.992 -0.2197
C 2.2919 6.7256 -0.1759
N 1.8253 5.4722 -0.1402
C 2.6665 4.443 -0.1457
H 5.6096 6.1098 -0.2594
H 4.0028 8.0107 -0.2482
H 1.5523 7.5266 -0.1691
H 2.2322 3.4479 -0.1154
C 0.1776 2.1814 7.0181
C 0.1321 3.3139 6.596
C 0.0773 4.6159 6.0637
C 0.0741 5.7286 6.8868
C 0.0193 7.0209 6.3521
C -0.0332 7.2238 4.9968
C -0.0321 6.1158 4.1231
C -0.0845 6.2566 2.7225
N -0.0834 5.2265 1.9056
C -0.0302 3.9632 2.4011
C 0.0231 3.718 3.7433
C 0.0237 4.7954 4.6524
H 0.1147 5.5953 7.9572
H 0.0188 7.8641 7.0256
H -0.0754 8.222 4.5911
H -0.1281 7.2464 2.2769
H -0.0328 3.1589 1.6637
H 0.0649 2.7112 4.1266
C 0.2299 0.8574 7.4985
C 0.2722 0.6158 8.8934
C 0.3222 -0.6628 9.3672
C 0.3329 -1.7661 8.4862
C 0.384 -3.0979 8.9527
C 0.3933 -4.1479 8.0819
C 0.3516 -3.9147 6.6847
C 0.3013 -2.6242 6.2002
C 0.2908 -1.5284 7.0842
C 0.2395 -0.2024 6.6153
H 0.2642 1.4556 9.5722
H 0.3543 -0.8486 10.4313
H 0.4158 -3.2721 10.0187
H 0.4325 -5.1638 8.4452
H 0.2695 -2.4448 5.1366
H 0.2076 -0.0226 5.5516
C 0.3624 -5.0155 5.8059
C 0.3718 -5.9644 5.0564
C 0.3855 -7.102 4.2288
C 0.4362 -8.3899 4.781
C 0.4488 -9.485 3.9362
C 0.4111 -9.2816 2.5659
N 0.3626 -8.0515 2.0421
C 0.3495 -6.9849 2.8354
H 0.4648 -8.5137 5.8523
H 0.4876 -10.4861 4.3343
H 0.4195 -10.1156 1.8637
H 0.3098 -6.0111 2.3557
C -6.8533 -5.0227 0.1421
C -6.403 -6.1452 0.1443
C -5.838 -7.4346 0.1457
C -6.6334 -8.5671 0.1624
C -6.0661 -9.8466 0.1634
C -4.7054 -10.0169 0.1476
C -3.8593 -8.8879 0.1303
C -2.4549 -8.9949 0.1129
N -1.6638 -7.945 0.0966
C -2.1911 -6.6936 0.0965
C -3.5398 -6.4807 0.1123
C -4.4219 -7.5802 0.1295
H -7.7075 -8.4596 0.1748
H -6.7186 -10.7061 0.1767
H -4.2746 -11.0055 0.1483
H -1.9842 -9.974 0.1122
H -1.4738 -5.8714 0.0833
H -3.9484 -5.4831 0.1119
C -7.3669 -3.7102 0.1402
C -8.7677 -3.5024 0.1588
C -9.2735 -2.2351 0.1577
C -8.4203 -1.1103 0.1381
C -8.9202 0.2102 0.1369
C -8.0759 1.2816 0.1182
C -6.673 1.0822 0.0991
C -6.1561 -0.1967 0.0994
C -7.0124 -1.314 0.119
C -6.5103 -2.6288 0.1205
H -9.4254 -4.3588 0.174
H -10.3423 -2.0752 0.1719
H -9.9905 0.3586 0.1514
H -8.4647 2.2887 0.1176
H -5.088 -0.3502 0.085
H -5.4422 -2.7827 0.1061
C -5.822 2.2045 0.08
C -5.0967 3.172 0.0633
C -4.2979 4.3299 0.0433
C -4.8822 5.6045 0.0558
C -4.0651 6.7203 0.0337
C -2.6902 6.5503 -0.0008
N -2.1358 5.3327 -0.0123
C -2.902 4.2467 0.0091
H -5.9563 5.7022 0.0822
H -4.4881 7.7118 0.0428
H -2.0092 7.4014 -0.0196
H -2.3981 3.2845 -0.0013
C -0.3041 2.0232 -7.101
C -0.3318 3.1648 -6.7024
C -0.3617 4.4782 -6.1966
C -0.4409 5.5714 -7.0416
C -0.4708 6.8751 -6.5332
C -0.4227 7.1087 -5.1827
C -0.3416 6.0213 -4.2871
C -0.2901 6.1937 -2.8901
N -0.2148 5.1828 -2.053
C -0.1829 3.909 -2.523
C -0.2281 3.6335 -3.8596
C -0.31 4.6897 -4.7897
H -0.4802 5.4139 -8.1089
H -0.5328 7.7025 -7.2233
H -0.4463 8.1155 -4.7972
H -0.3126 7.193 -2.4645
H -0.1189 3.122 -1.7699
H -0.2025 2.6187 -4.2224
C -0.2711 0.6891 -7.5542
C -0.3173 0.4162 -8.9432
C -0.2852 -0.8724 -9.3908
C -0.2058 -1.9553 -8.4882
C -0.1707 -3.2967 -8.9276
C -0.0935 -4.3266 -8.0363
C -0.0475 -4.0621 -6.6448
C -0.0804 -2.7614 -6.1867
C -0.1594 -1.6862 -7.092
C -0.1937 -0.3503 -6.6502
H -0.3779 1.2403 -9.6385
H -0.3203 -1.082 -10.4504
H -0.2061 -3.4948 -9.9893
H -0.0668 -5.35 -8.3789
H -0.0452 -2.5582 -5.1274
H -0.1584 -0.1467 -5.5909
C 0.0316 -5.1425 -5.7446
C 0.0991 -6.0744 -4.9768
C 0.1758 -7.193 -4.127
C 0.2188 -8.4918 -4.6535
C 0.2923 -9.5677 -3.7872
C 0.3211 -9.3346 -2.4214
N 0.2804 -8.0939 -1.9223
C 0.2103 -7.0455 -2.7365
H 0.1941 -8.639 -5.7219
H 0.3266 -10.5767 -4.1652
H 0.3781 -10.1526 -1.7029
H 0.1802 -6.062 -2.2763

