# closed shell KS, PBE0/def2-SVP/D4
! DFT OPT RKS PBE0 RIJCOSX GridX6 def2-SVP def2/J D4 Grid6 NOFINALGRID SlowConv TightSCF XYZFILE PDBFILE

%base "_binolA" 

%scf
   MaxIter 2000
end

%geom
   MaxIter 1000
end

%pal
   nprocs 128
end

* xyzfile 0 1 binolA_opt.xyz
