%chk=_s_4b3_b.chk
%mem=60000mb
%nprocshared=32

#P PBE1PBE/Def2SVP SP  SCF=(YQC,MaxCycle=900) int=(Grid=Superfinegrid) EmpiricalDispersion=GD3BJ SCRF=(PCM,Solvent=DiMethylSulfoxide)

_s_4b3_b

4 1
Pd -0.7812 6.4605 0.7711
Pd 2.9713 -6.9176 -0.2942
C 6.5996 -2.4276 1.2508
C 7.0992 -3.5282 1.1919
C 7.7131 -4.7931 1.1348
C 9.0597 -4.9295 1.4199
C 9.6821 -6.1815 1.3736
C 8.977 -7.3124 1.0434
C 7.6059 -7.2226 0.7411
C 6.8206 -8.3447 0.3898
C 5.4952 -8.1857 0.1031
N 4.896 -6.9699 0.1418
C 5.5931 -5.9003 0.4672
C 6.9589 -5.9535 0.7832
H 9.6369 -4.0569 1.6849
H 10.7343 -6.251 1.6037
H 9.4621 -8.2753 1.011
H 7.2795 -9.3197 0.351
H 4.857 -9.0255 -0.1709
H 5.0702 -4.9461 0.4825
C 6.0061 -1.1514 1.3025
C 4.6129 -1.0216 1.3474
C 4.0323 0.2262 1.3787
C 4.8335 1.374 1.366
C 6.2269 1.2462 1.3344
C 6.8069 -0.0033 1.3029
H 4.0004 -1.9093 1.3633
H 2.959 0.3305 1.4149
H 6.8452 2.131 1.3307
H 7.8813 -0.1041 1.2743
C 4.2378 2.6495 1.3812
C 3.7011 3.7332 1.3851
C 3.108 5.0098 1.3974
C 3.8693 6.1603 1.6512
C 3.243 7.3928 1.6563
C 1.8802 7.4622 1.4065
N 1.1593 6.3665 1.1611
C 1.7401 5.1666 1.1552
H 4.9279 6.074 1.8407
H 3.8014 8.2941 1.8509
H 1.3513 8.4108 1.4019
H 1.0959 4.3103 0.9514
C -1.2181 1.759 4.9737
C -1.5842 2.8912 5.1936
C -1.9803 4.1742 5.6176
C -2.4999 4.3228 6.8921
C -2.8308 5.5838 7.3962
C -2.6338 6.7154 6.6444
C -2.1244 6.6097 5.3382
C -1.893 7.7376 4.5186
C -1.4307 7.5679 3.2477
N -1.2043 6.3366 2.7179
C -1.3763 5.2627 3.4617
C -1.8142 5.3282 4.7959
H -2.6359 3.4492 7.5111
H -3.2309 5.6611 8.3955
H -2.8661 7.6908 7.0418
H -2.0865 8.7241 4.9086
H -1.2219 8.4212 2.6001
H -1.1749 4.3012 2.9992
C -0.7621 0.4461 4.7405
C 0.4792 0.2275 4.1324
C 0.9374 -1.0571 3.9415
C 0.1621 -2.1491 4.3499
C -1.0747 -1.9306 4.9661
C -1.5318 -0.645 5.1597
H 1.0791 1.0729 3.8338
H 1.9009 -1.2306 3.488
H -1.6691 -2.7729 5.2859
H -2.4851 -0.4727 5.6357
C 0.6161 -3.4581 4.0967
C 0.9993 -4.5748 3.834
C 1.4209 -5.8397 3.3805
C 1.1211 -7.0381 4.0434
C 1.5181 -8.2345 3.4733
C 2.1712 -8.2274 2.2478
N 2.4595 -7.0854 1.6225
C 2.1222 -5.9199 2.1754
H 0.5849 -7.0186 4.9794
H 1.3078 -9.1718 3.9626
H 2.4725 -9.1439 1.7522
H 2.4101 -5.0133 1.6397
C -4.3417 1.751 -0.5058
C -4.8199 2.8619 -0.4625
C -5.4703 4.1086 -0.4343
C -6.8298 4.1679 -0.6882
C -7.5173 5.3851 -0.6672
C -6.8622 6.5599 -0.3937
C -5.4801 6.5489 -0.1321
C -4.7489 7.7228 0.1543
C -3.4088 7.6459 0.3976
N -2.737 6.4696 0.3734
C -3.3848 5.3499 0.1105
C -4.7637 5.3164 -0.1507
H -7.3668 3.2569 -0.9039
H -8.5774 5.3922 -0.8693
H -7.3935 7.4984 -0.3767
H -5.2584 8.6727 0.1781
H -2.8238 8.5329 0.6217
H -2.8019 4.4304 0.1001
C -3.7992 0.4538 -0.5722
C -4.5854 -0.5942 -1.0684
C -4.0707 -1.8692 -1.1511
C -2.7575 -2.1214 -0.7391
C -1.9741 -1.0755 -0.2349
C -2.4888 0.1985 -0.1519
H -5.5969 -0.3945 -1.3883
H -4.6759 -2.6759 -1.5362
H -0.9662 -1.2812 0.087
H -1.8901 1.0053 0.2396
C -2.2064 -3.4128 -0.8314
C -1.7035 -4.51 -0.9086
C -1.0376 -5.7474 -0.9739
C -1.6798 -6.9488 -1.3031
C -0.9385 -8.117 -1.3372
C 0.4167 -8.0756 -1.0455
N 1.0256 -6.9273 -0.734
C 0.3314 -5.7929 -0.6975
H -2.7358 -6.9542 -1.524
H -1.4052 -9.0562 -1.5868
H 1.0388 -8.9671 -1.0576
H 0.8724 -4.8846 -0.4422
C 0.8858 3.0567 -4.3354
C 0.5899 4.2301 -4.3636
C 0.3419 5.6021 -4.5516
C 0.4384 6.1207 -5.8327
C 0.2743 7.4864 -6.077
C 0.0286 8.3592 -5.0461
C -0.0883 7.876 -3.7312
C -0.3265 8.7283 -2.6293
C -0.4539 8.1998 -1.3797
N -0.3871 6.8617 -1.1478
C -0.1405 6.0375 -2.1462
C 0.0429 6.4809 -3.4676
H 0.6564 5.4558 -6.6543
H 0.357 7.8531 -7.0886
H -0.0765 9.4168 -5.2299
H -0.4036 9.7918 -2.7897
H -0.6155 8.8376 -0.5086
H -0.0894 4.9785 -1.9138
C 1.2642 1.7011 -4.3022
C 1.5631 1.0701 -3.0893
C 1.9654 -0.2456 -3.0785
C 2.075 -0.9622 -4.2774
C 1.7752 -0.3333 -5.4903
C 1.3747 0.9853 -5.5014
H 1.4859 1.6265 -2.1694
H 2.2044 -0.7375 -2.1498
H 1.8602 -0.8833 -6.4153
H 1.1452 1.4744 -6.436
C 2.4674 -2.3127 -4.2239
C 2.7871 -3.4742 -4.1142
C 3.0751 -4.829 -3.8648
C 3.2156 -5.792 -4.8741
C 3.4236 -7.1116 -4.5143
C 3.4597 -7.459 -3.1703
N 3.3361 -6.5391 -2.2126
C 3.1722 -5.2568 -2.5379
H 3.1539 -5.5014 -5.9113
H 3.5394 -7.8739 -5.2677
H 3.5909 -8.4859 -2.8465
H 3.1116 -4.5372 -1.7192

