%chk=_s_5a3_c.chk
%mem=60000mb
%nprocshared=32

#P PBE1PBE/Def2SVP SP  SCF=(YQC,MaxCycle=900) int=(Grid=Superfinegrid) EmpiricalDispersion=GD3BJ SCRF=(PCM,Solvent=DiMethylSulfoxide)

_s_5a3_c

4 1
Pd 0.2079 3.9939 0.0538
Pd 0.5822 -9.3635 0.5266
C 7.4225 -5.5955 1.2021
C 7.0392 -6.7422 1.2342
C 6.5805 -8.0718 1.2927
C 7.4513 -9.1096 1.5771
C 6.9981 -10.4312 1.6583
C 5.6757 -10.737 1.4644
C 4.7559 -9.7084 1.1681
C 3.3853 -9.9565 0.9661
N 2.5247 -9.0017 0.6824
C 2.9456 -7.7181 0.5663
C 4.253 -7.3691 0.7543
C 5.2041 -8.36 1.0708
H 8.496 -8.8928 1.7415
H 7.7076 -11.2131 1.8817
H 5.3305 -11.7562 1.5346
H 2.9975 -10.9701 1.0432
H 2.1799 -6.9874 0.3133
H 4.5756 -6.3444 0.6635
C 7.8674 -4.2586 1.1703
C 9.2518 -3.9806 1.2839
C 9.6978 -2.6913 1.2594
C 8.7977 -1.6122 1.1219
C 9.235 -0.27 1.093
C 8.3467 0.7565 0.956
C 6.9606 0.4867 0.8423
C 6.5042 -0.8149 0.8707
C 7.4064 -1.8866 1.0084
C 6.966 -3.2233 1.0351
H 9.9451 -4.8018 1.3892
H 10.7537 -2.4783 1.3457
H 10.293 -0.0682 1.1806
H 8.6878 1.7805 0.9331
H 5.4485 -1.0215 0.7839
H 5.9101 -3.4304 0.9512
C 6.0579 1.5573 0.6914
C 5.2808 2.4734 0.5529
C 4.3949 3.5508 0.3699
C 4.8678 4.8591 0.1919
C 3.9582 5.8822 -0.0048
C 2.6031 5.5893 -0.023
N 2.1554 4.3431 0.1541
C 3.0123 3.3436 0.3479
H 5.9289 5.0531 0.2067
H 4.294 6.8968 -0.146
H 1.8538 6.3618 -0.1824
H 2.5916 2.3502 0.4909
C 0.0342 -5.5867 7.3729
C 0.1278 -6.7347 7.0038
C 0.2595 -8.0656 6.5645
C 0.3701 -9.104 7.4732
C 0.5228 -10.4271 7.0431
C 0.5733 -10.7337 5.7078
C 0.4599 -9.7045 4.7488
C 0.5107 -9.9536 3.3644
N 0.3976 -8.9982 2.4661
C 0.2176 -7.7128 2.858
C 0.1651 -7.3628 4.1776
C 0.2928 -8.3546 5.1709
H 0.3409 -8.8867 8.5302
H 0.6053 -11.2094 7.7819
H 0.6976 -11.7541 5.3817
H 0.649 -10.9686 2.9976
H 0.1164 -6.9813 2.0587
H 0.0256 -6.3368 4.4776
C -0.0685 -4.2485 7.803
C -0.2079 -3.968 9.1845
C -0.3031 -2.6775 9.6171
C -0.2645 -1.5995 8.706
C -0.3611 -0.256 9.1294
C -0.3245 0.7693 8.2301
C -0.1858 0.4971 6.8467
C -0.0861 -0.8059 6.4044
C -0.1243 -1.8764 7.3176
C -0.0285 -3.2144 6.8909
H -0.2379 -4.7883 9.8861
H -0.4096 -2.4624 10.6708
H -0.4665 -0.0523 10.1854
H -0.4001 1.7944 8.5603
H 0.0196 -1.0144 5.3508
H 0.0803 -3.4235 5.8377
C -0.1605 1.5669 5.931
C -0.148 2.4831 5.1419
C -0.1609 3.5608 4.2377
C -0.3924 4.8734 4.674
C -0.4184 5.8967 3.744
C -0.218 5.5997 2.4046
N 0.0098 4.3492 1.993
C 0.0432 3.3496 2.8707
H -0.5504 5.0706 5.7228
H -0.5957 6.9146 4.0513
H -0.2387 6.3721 1.6388
H 0.2376 2.3527 2.4801
C -6.6532 0.2361 -0.4441
C -6.2701 1.3824 -0.4882
C -5.8112 2.7113 -0.5599
C -6.6887 3.7513 -0.8138
C -6.2357 5.0722 -0.9073
C -4.9072 5.3751 -0.7554
C -3.9803 4.3442 -0.491
C -2.6037 4.5895 -0.3302
N -1.7365 3.6326 -0.0754
C -2.1556 2.3492 0.0487
C -3.4688 2.0029 -0.0996
C -4.4277 2.9964 -0.3825
H -7.7386 3.537 -0.9445
H -6.9505 5.856 -1.106
H -4.5624 6.3938 -0.8346
H -2.2167 5.6028 -0.4161
H -1.3836 1.6162 0.2742
H -3.7901 0.9784 -0.0022
C -7.0978 -1.1006 -0.3994
C -8.4857 -1.3774 -0.4598
C -8.9312 -2.6665 -0.4236
C -8.0272 -3.7467 -0.3266
C -8.4639 -5.0889 -0.2881
C -7.5715 -6.1164 -0.1916
C -6.1818 -5.8478 -0.1298
C -5.7261 -4.5462 -0.1683
C -6.6323 -3.4735 -0.2658
C -6.1924 -2.1369 -0.3035
H -9.1821 -0.5553 -0.5343
H -9.9899 -2.8787 -0.4694
H -9.5246 -5.2897 -0.3356
H -7.9121 -7.1405 -0.1615
H -4.6678 -4.3406 -0.1214
H -5.134 -1.9307 -0.2601
C -5.2751 -6.9199 -0.0193
C -4.495 -7.8379 0.0855
C -3.6064 -8.9184 0.2341
C -4.077 -10.2299 0.3931
C -3.1652 -11.2561 0.5605
C -1.8101 -10.963 0.5703
N -1.3645 -9.7136 0.4105
C -2.2236 -8.7113 0.2432
H -5.1382 -10.424 0.3871
H -3.4991 -12.2733 0.6865
H -1.0591 -11.7379 0.7085
H -1.8047 -7.7155 0.1124
C 0.7081 0.214 -6.7958
C 0.6069 1.361 -6.4256
C 0.4669 2.6909 -5.9859
C 0.3345 3.727 -6.8942
C 0.1738 5.049 -6.4638
C 0.1371 5.3568 -5.1282
C 0.2729 4.3299 -4.1696
C 0.2373 4.5802 -2.7849
N 0.3712 3.6272 -1.887
C 0.5585 2.3431 -2.2796
C 0.5978 1.992 -3.5994
C 0.4481 2.9811 -4.5922
H 0.3528 3.5087 -7.9513
H 0.0741 5.8296 -7.2023
H 0.0067 6.3762 -4.8018
H 0.0937 5.5944 -2.4178
H 0.6771 1.6137 -1.4809
H 0.7437 0.967 -3.9
C 0.8201 -1.1235 -7.2258
C 0.96 -1.4035 -8.6074
C 1.0648 -2.6934 -9.0395
C 1.036 -3.7713 -8.1279
C 1.143 -5.1142 -8.5507
C 1.1155 -6.1393 -7.6508
C 0.9758 -5.8675 -6.2675
C 0.866 -4.5651 -5.8258
C 0.895 -3.4948 -6.7395
C 0.7892 -2.1575 -6.3132
H 0.9827 -0.5833 -9.3094
H 1.1719 -2.9081 -10.0933
H 1.249 -5.3176 -9.6067
H 1.1991 -7.1639 -7.9806
H 0.7596 -4.3569 -4.7722
H 0.6798 -1.9488 -5.2601
C 0.9595 -6.9367 -5.3509
C 0.9545 -7.8515 -4.5601
C 0.9754 -8.9281 -3.6547
C 1.2241 -10.2382 -4.0887
C 1.2567 -11.2605 -3.1578
C 1.0452 -10.9648 -1.8198
N 0.801 -9.7167 -1.4103
C 0.7615 -8.7181 -2.2889
H 1.3899 -10.4344 -5.1365
H 1.4473 -12.2765 -3.4633
H 1.0707 -11.7366 -1.0534
H 0.5537 -7.7232 -1.9001

