%chk=_s_4d2_d.chk
%mem=60000mb
%nprocshared=32

#P PBE1PBE/Def2SVP SP  SCF=(YQC,MaxCycle=900) int=(Grid=Superfinegrid) EmpiricalDispersion=GD3BJ SCRF=(PCM,Solvent=DiMethylSulfoxide)

_s_4d2_d

4 1
Pd 0.0975 4.0902 0.4907
Pd 0.3609 -5.5567 0.1849
C 6.1319 -2.8441 0.1984
C 5.9451 -4.0316 0.3351
C 5.8774 -5.4319 0.4765
C 7.0551 -6.1454 0.618
C 7.0488 -7.5382 0.7398
C 5.8705 -8.2418 0.7143
C 4.6491 -7.5599 0.5696
C 3.4058 -8.2309 0.5248
C 2.2517 -7.5181 0.38
N 2.2536 -6.1627 0.2849
C 3.3916 -5.5006 0.3234
C 4.6369 -6.1386 0.4563
H 7.9945 -5.6143 0.6334
H 7.9875 -8.0591 0.8502
H 5.8671 -9.3169 0.801
H 3.3834 -9.3062 0.6032
H 1.2787 -8.0134 0.3225
H 3.3469 -4.4187 0.2517
C 6.2859 -1.4553 -0.0064
C 7.4993 -0.9353 -0.4671
C 7.6158 0.4236 -0.6986
C 6.5425 1.2736 -0.489
C 5.3243 0.7685 -0.0287
C 5.2122 -0.5983 0.2221
H 8.3351 -1.5945 -0.6443
H 8.5523 0.8244 -1.0557
H 6.648 2.3229 -0.7152
H 4.3048 -1.01 0.6324
C 4.1569 1.6343 0.1609
C 2.8678 1.1248 -0.0532
C 1.769 1.9252 0.1545
N 1.8889 3.2125 0.5195
C 3.1033 3.7281 0.7055
C 4.2524 2.9721 0.5534
H 2.7346 0.1154 -0.4064
H 0.7521 1.5388 0.0304
H 3.1511 4.7706 0.9971
H 5.2114 3.423 0.7503
C 0.4574 1.3502 6.2507
C 0.3144 2.5385 6.0753
C 0.1737 3.9386 6.0181
C 0.0908 4.6487 7.2035
C -0.0254 6.0418 7.2074
C -0.054 6.7482 6.0308
C 0.0265 6.0689 4.8023
C 0.0065 6.7439 3.5603
C 0.0737 6.0327 2.3984
N 0.1585 4.6756 2.3914
C 0.1968 4.0104 3.5274
C 0.1356 4.6474 4.7797
H 0.1172 4.1144 8.1409
H -0.0888 6.5604 8.1517
H -0.1377 7.8236 6.0342
H -0.0647 7.8198 3.5452
H 0.054 6.5304 1.4243
H 0.2829 2.9302 3.4727
C 0.6938 -0.0334 6.4002
C 1.1683 -0.5389 7.6146
C 1.4531 -1.8874 7.7273
C 1.2868 -2.7385 6.6477
C 0.8078 -2.2492 5.4293
C 0.4978 -0.8938 5.3229
H 1.3163 0.1246 8.4527
H 1.8217 -2.2782 8.6636
H 1.5623 -3.7761 6.7499
H 0.0724 -0.4929 4.417
C 0.6773 -3.1217 4.2593
C 0.4187 -4.492 4.3552
C 0.3403 -5.2601 3.2076
N 0.4828 -4.7323 1.9936
C 0.7144 -3.4151 1.8717
C 0.8309 -2.5942 2.9685
H 0.2659 -4.961 5.3134
H 0.1605 -6.327 3.26
H 0.8027 -3.0247 0.8514
H 1.0591 -1.5501 2.8334
C -4.6732 -1.9022 -2.2344
C -4.5826 -3.0616 -1.8992
C -4.7661 -4.4124 -1.5448
C -5.9596 -5.006 -1.9255
C -6.2759 -6.3142 -1.5527
C -5.4055 -7.0521 -0.7899
C -4.1723 -6.5002 -0.4033
C -3.2335 -7.2292 0.3609
C -2.0192 -6.6809 0.6447
N -1.6694 -5.4338 0.217
C -2.5443 -4.6999 -0.4411
C -3.824 -5.1708 -0.7879
H -6.6641 -4.435 -2.5102
H -7.2192 -6.7369 -1.8624
H -5.6511 -8.057 -0.4851
H -3.4843 -8.2224 0.6983
H -1.28 -7.2207 1.2456
H -2.2314 -3.7039 -0.73
C -4.8509 -0.5273 -2.4981
C -5.7969 -0.1095 -3.4393
C -6.0498 1.2399 -3.6008
C -5.389 2.1821 -2.8305
C -4.436 1.7809 -1.8925
C -4.1593 0.4211 -1.7506
H -6.3317 -0.8408 -4.0251
H -6.7854 1.5625 -4.3218
H -5.6439 3.2242 -2.9385
H -3.4083 0.079 -1.0572
C -3.7079 2.7411 -1.0595
C -3.4253 4.0477 -1.4688
C -2.5385 4.8168 -0.7368
N -1.9371 4.3635 0.3646
C -2.3251 3.1709 0.86
C -3.2065 2.3506 0.1917
H -3.8418 4.4457 -2.3794
H -2.27 5.8161 -1.0527
H -1.9476 2.8997 1.8471
H -3.4992 1.4122 0.634
C -2.2608 0.5291 -4.6208
C -1.9445 1.6934 -4.5246
C -1.595 3.0487 -4.6836
C -1.9578 3.6636 -5.8715
C -1.58 4.9777 -6.1573
C -0.8266 5.699 -5.2647
C -0.4567 5.1254 -4.0363
C 0.3048 5.8307 -3.0771
C 0.5737 5.2582 -1.8706
N 0.125 4.0119 -1.547
C -0.5307 3.2995 -2.4415
C -0.8535 3.7922 -3.7174
H -2.5314 3.106 -6.5957
H -1.8766 5.4181 -7.0967
H -0.5159 6.7069 -5.49
H 0.6553 6.8242 -3.3077
H 1.1811 5.7691 -1.1167
H -0.8384 2.3031 -2.1484
C -2.5211 -0.8453 -4.8092
C -3.4442 -1.2533 -5.7775
C -3.612 -2.6005 -6.0375
C -2.8666 -3.5508 -5.36
C -1.9466 -3.16 -4.3855
C -1.7961 -1.8018 -4.1043
H -4.0119 -0.5156 -6.3229
H -4.3188 -2.915 -6.7901
H -2.9792 -4.5916 -5.6183
H -1.1158 -1.4692 -3.3371
C -1.143 -4.1327 -3.6407
C 0.1085 -3.767 -3.1216
C 0.749 -4.6011 -2.2322
N 0.224 -5.7826 -1.8488
C -0.8783 -6.2138 -2.4648
C -1.5816 -5.4307 -3.3628
H 0.5723 -2.8373 -3.4095
H 1.7395 -4.3536 -1.8461
H -1.2193 -7.2061 -2.2003
H -2.494 -5.811 -3.7918

