%chk=_s_5d1_c.chk
%mem=60000mb
%nprocshared=32

#P PBE1PBE/Def2SVP SP  SCF=(YQC,MaxCycle=900) int=(Grid=Superfinegrid) EmpiricalDispersion=GD3BJ SCRF=(PCM,Solvent=DiMethylSulfoxide)

_s_5d1_c

4 1
Pd -0.0524 3.661 0.293
Pd -0.7378 -5.5733 0.1755
C 5.6678 -1.1236 0.6658
C 5.4112 -2.3052 0.6708
C 5.097 -3.676 0.7537
C 6.0613 -4.5977 1.1228
C 5.7439 -5.9523 1.2778
C 4.4628 -6.4025 1.0886
C 3.4522 -5.4956 0.7034
C 2.1145 -5.8906 0.5192
N 1.1727 -5.0519 0.1425
C 1.4749 -3.7518 -0.1043
C 2.7364 -3.2611 0.0757
C 3.7677 -4.1205 0.5071
H 7.0724 -4.264 1.3004
H 6.5235 -6.6417 1.5633
H 4.2191 -7.4434 1.2295
H 1.8205 -6.9228 0.6939
H 0.648 -3.137 -0.4539
H 2.9663 -2.224 -0.109
C 5.9468 0.2583 0.729
C 7.1944 0.7003 1.1778
C 7.4376 2.056 1.2935
C 6.4558 2.9779 0.9716
C 5.208 2.551 0.5125
C 4.9631 1.1868 0.3884
H 7.9581 -0.0171 1.4363
H 8.3988 2.3999 1.6447
H 6.6561 4.0296 1.104
H 4.0221 0.8316 0.0003
C 4.1668 3.5361 0.1809
C 4.4836 4.773 -0.3903
C 3.4761 5.6835 -0.6619
C 2.1652 5.3399 -0.3797
N 1.8579 4.153 0.1471
C 2.82 3.2755 0.4308
H 5.5075 5.0113 -0.6317
H 3.7053 6.6438 -1.0947
H 1.3388 6.0206 -0.5742
H 2.4981 2.3445 0.893
C -0.0511 -0.7753 6.3023
C -0.1353 -1.9678 6.1215
C -0.1548 -3.3584 5.8961
C 0.1174 -4.2422 6.9258
C 0.1717 -5.6223 6.6978
C -0.022 -6.1377 5.4422
C -0.3103 -5.2703 4.3667
C -0.4926 -5.7347 3.0512
N -0.7804 -4.9316 2.0488
C -0.9326 -3.5999 2.2631
C -0.744 -3.0447 3.4963
C -0.4052 -3.8669 4.5905
H 0.2974 -3.859 7.9188
H 0.3831 -6.2803 7.5266
H 0.0419 -7.1999 5.2678
H -0.3919 -6.7939 2.8267
H -1.2142 -3.0144 1.3902
H -0.852 -1.984 3.6562
C 0.1168 0.6127 6.4945
C 0.5969 1.0965 7.7146
C 0.8155 2.452 7.8735
C 0.5654 3.3324 6.8344
C 0.076 2.8645 5.6132
C -0.1512 1.501 5.4529
H 0.7993 0.4106 8.5229
H 1.1912 2.8277 8.8133
H 0.7772 4.3816 6.9695
H -0.5649 1.1182 4.5338
C -0.1798 3.805 4.5112
C -0.6575 5.0981 4.7478
C -0.8598 5.9621 3.6846
C -0.6026 5.5179 2.3991
N -0.1649 4.2785 2.1686
C 0.0516 3.4436 3.1845
H -0.8815 5.4167 5.7538
H -1.2204 6.9641 3.8517
H -0.7452 6.1586 1.5311
H 0.4433 2.4626 2.9233
C -6.4588 -0.784 -0.1846
C -6.2049 0.3981 -0.172
C -5.8933 1.7706 -0.2353
C -6.8629 2.6973 -0.5768
C -6.5486 4.0546 -0.7131
C -5.2654 4.5028 -0.5333
C -4.2493 3.5906 -0.1763
C -2.9094 3.9835 -0.0037
N -1.9623 3.1397 0.3477
C -2.2609 1.8359 0.5788
C -3.5242 1.3471 0.4069
C -4.5613 2.2123 0.002
H -7.8759 2.3657 -0.7472
H -7.3323 4.7479 -0.9769
H -5.0243 5.5461 -0.6603
H -2.6182 5.0184 -0.1664
H -1.4293 1.2165 0.9086
H -3.7512 0.307 0.5779
C -6.7355 -2.1653 -0.269
C -7.9786 -2.6022 -0.735
C -8.2194 -3.9563 -0.8716
C -7.2397 -4.8816 -0.5534
C -5.9965 -4.4601 -0.077
C -5.754 -3.0975 0.0677
H -8.7405 -1.8818 -0.9904
H -9.177 -4.2962 -1.2363
H -7.4378 -5.9317 -0.7018
H -4.8169 -2.747 0.4695
C -4.958 -5.4489 0.2516
C -5.2796 -6.6926 0.8049
C -4.2744 -7.606 1.0751
C -2.9611 -7.2588 0.8089
N -2.6494 -6.0658 0.2987
C -3.609 -5.1851 0.0168
H -6.3056 -6.9339 1.0342
H -4.5073 -8.5714 1.4944
H -2.1363 -7.9416 1.0028
H -3.2832 -4.2485 -0.4311
C -0.7468 -1.1405 -5.8334
C -0.6807 0.0528 -5.6504
C -0.6816 1.4431 -5.4224
C -0.9814 2.3239 -6.447
C -1.0555 3.7026 -6.2158
C -0.8536 4.2191 -4.9619
C -0.5373 3.3549 -3.8918
C -0.3442 3.8204 -2.5782
N -0.0312 3.0203 -1.581
C 0.1378 1.6913 -1.799
C -0.0579 1.1351 -3.0306
C -0.4232 1.9535 -4.1192
H -1.1678 1.9395 -7.4383
H -1.2885 4.3583 -7.0405
H -0.9324 5.2799 -4.7848
H -0.4578 4.8776 -2.3508
H 0.4389 1.1089 -0.9306
H 0.0645 0.0763 -3.1936
C -0.8933 -2.5306 -6.0278
C -1.3549 -3.0209 -7.2524
C -1.5527 -4.3794 -7.4133
C -1.3003 -5.2563 -6.3719
C -0.8293 -4.7817 -5.1459
C -0.6226 -3.4152 -4.9837
H -1.5592 -2.3379 -8.0626
H -1.9141 -4.7602 -8.3567
H -1.4962 -6.3083 -6.509
H -0.2235 -3.0267 -4.0607
C -0.5718 -5.7186 -4.0413
C -0.076 -7.0059 -4.2728
C 0.1267 -7.8669 -3.2073
C -0.1479 -7.4255 -1.9244
N -0.6024 -6.1913 -1.6986
C -0.8197 -5.3596 -2.7169
H 0.1614 -7.322 -5.2764
H 0.5008 -8.8647 -3.3706
H -0.0056 -8.0641 -1.0549
H -1.226 -4.3834 -2.4598

