%chk=_s_5d3_a.chk
%mem=60000mb
%nprocshared=32

#P PBE1PBE/Def2SVP SP  SCF=(YQC,MaxCycle=900) int=(Grid=Superfinegrid) EmpiricalDispersion=GD3BJ SCRF=(PCM,Solvent=DiMethylSulfoxide)

_s_5d3_a

4 1
Pd 0.9914 5.6925 0.3243
Pd 0.3732 -4.8852 -0.1132
C 7.8554 2.2902 -0.1381
C 7.561 3.4619 -0.0879
C 7.0972 4.7903 -0.0227
C 7.9546 5.8748 -0.0349
C 7.4582 7.1828 0.0328
C 6.1113 7.428 0.1131
C 5.2021 6.3484 0.1279
C 3.8065 6.5279 0.2081
N 2.9623 5.519 0.221
C 3.4241 4.2447 0.1562
C 4.7563 3.9628 0.0763
C 5.6935 5.0147 0.0595
H 9.0198 5.711 -0.0972
H 8.1568 8.0054 0.021
H 5.7391 8.4388 0.1649
H 3.3848 7.528 0.2622
H 2.6734 3.4559 0.1718
H 5.1106 2.9462 0.0252
C 8.1667 0.915 -0.1923
C 9.493 0.4826 -0.2831
C 9.7749 -0.8715 -0.3326
C 8.7547 -1.805 -0.292
C 7.424 -1.3805 -0.2018
C 7.1321 -0.0197 -0.1529
H 10.2917 1.2083 -0.3138
H 10.8008 -1.2015 -0.4028
H 8.9815 -2.8595 -0.3303
H 6.107 0.3083 -0.0824
C 6.3923 -2.3419 -0.1584
C 5.5092 -3.167 -0.1205
C 4.5925 -4.2356 -0.0767
C 5.0753 -5.5516 -0.0258
C 4.1749 -6.5996 0.0129
C 2.8184 -6.3201 -0.0024
N 2.3579 -5.0653 -0.0511
C 3.2075 -4.0401 -0.0861
H 6.1388 -5.7322 -0.0174
H 4.5177 -7.6208 0.0531
H 2.0809 -7.1204 0.0276
H 2.7737 -3.0446 -0.1244
C 1.1418 2.3787 7.2445
C 1.2079 3.5445 6.9305
C 1.2739 4.8647 6.4439
C 1.3988 5.957 7.2823
C 1.4598 7.2565 6.7634
C 1.3978 7.4856 5.4126
C 1.2706 6.3975 4.5224
C 1.202 6.5603 3.1241
N 1.0843 5.5436 2.2978
C 1.0238 4.2772 2.7815
C 1.0814 4.0115 4.1181
C 1.2077 5.0722 5.0368
H 1.4496 5.8059 8.3499
H 1.5573 8.0856 7.4475
H 1.4453 8.49 5.0231
H 1.2461 7.5535 2.6853
H 0.9259 3.4813 2.0447
H 1.0325 3.0011 4.4899
C 1.0596 1.0104 7.5792
C 1.1109 0.5935 8.9126
C 1.0259 -0.7539 9.2174
C 0.889 -1.6957 8.2134
C 0.8375 -1.2868 6.8757
C 0.9238 0.0671 6.5607
H 1.2164 1.3258 9.6988
H 1.066 -1.072 10.2486
H 0.8225 -2.7447 8.458
H 0.8832 0.3832 5.5303
C 0.6947 -2.2562 5.8608
C 0.5713 -3.0884 4.9922
C 0.4177 -4.1628 4.0942
C 0.2377 -5.4587 4.6
C 0.091 -6.5128 3.7181
C 0.1287 -6.2595 2.3569
N 0.3005 -5.0239 1.8745
C 0.441 -3.9929 2.706
H 0.2157 -5.6194 5.6665
H -0.0494 -7.5189 4.0787
H 0.0161 -7.0653 1.6335
H 0.5766 -3.0137 2.2548
C -6.2242 3.0877 0.5307
C -5.7955 4.2175 0.5758
C -5.1799 5.4836 0.618
C -5.9052 6.6561 0.7212
C -5.2593 7.8984 0.759
C -3.8925 7.9905 0.695
C -3.1152 6.8171 0.5894
C -1.7076 6.8385 0.5199
N -0.9867 5.7425 0.4221
C -1.5942 4.5297 0.3844
C -2.9506 4.3995 0.4451
C -3.759 5.5487 0.5503
H -6.9826 6.6131 0.773
H -5.8574 8.7931 0.8399
H -3.4048 8.9519 0.7246
H -1.1721 7.7837 0.5462
H -0.9405 3.6626 0.3023
H -3.4213 3.4304 0.4144
C -6.6934 1.7582 0.4732
C -8.0615 1.4768 0.5332
C -8.4988 0.1651 0.4726
C -7.5937 -0.874 0.352
C -6.2222 -0.6011 0.2919
C -5.774 0.7161 0.3536
H -8.7707 2.2854 0.6262
H -9.5565 -0.0482 0.5193
H -7.9415 -1.8946 0.3046
H -4.7174 0.9275 0.3064
C -5.3089 -1.669 0.166
C -4.5274 -2.5853 0.057
C -3.7412 -3.7463 -0.0777
C -4.3741 -4.9884 -0.2342
C -3.6019 -6.1276 -0.3623
C -2.2221 -6.0105 -0.3298
N -1.6186 -4.8263 -0.1804
C -2.343 -3.7153 -0.058
H -5.4513 -5.0423 -0.253
H -4.0613 -7.095 -0.4845
H -1.5829 -6.8863 -0.4282
H -1.7962 -2.7837 0.0599
C 0.5125 2.9977 -6.8455
C 0.5795 4.1335 -6.4361
C 0.6633 5.4079 -5.8422
C 0.6749 6.5723 -6.5875
C 0.7611 7.8232 -5.9632
C 0.8367 7.9319 -4.5981
C 0.8275 6.7672 -3.8008
C 0.9021 6.8057 -2.3939
N 0.8926 5.7179 -1.6542
C 0.8084 4.4971 -2.2407
C 0.7323 4.3503 -3.5947
C 0.7398 5.4903 -4.4227
H 0.617 6.5162 -7.664
H 0.7675 8.7112 -6.5766
H 0.9031 8.8997 -4.1271
H 0.9707 7.7578 -1.8746
H 0.8053 3.6375 -1.5721
H 0.6658 3.3751 -4.0486
C 0.4381 1.6613 -7.2923
C 0.3508 1.3643 -8.6555
C 0.2814 0.0458 -9.0707
C 0.2986 -0.9848 -8.1481
C 0.3852 -0.696 -6.7812
C 0.454 0.6281 -6.3553
H 0.3383 2.166 -9.3784
H 0.214 -0.1796 -10.1247
H 0.2449 -2.0108 -8.4787
H 0.5218 0.8515 -5.3023
C 0.4047 -1.7556 -5.8499
C 0.4224 -2.6649 -5.053
C 0.4412 -3.8199 -4.2469
C 0.4705 -5.0821 -4.8581
C 0.4851 -6.215 -4.0662
C 0.4678 -6.0714 -2.6887
N 0.4396 -4.8679 -2.1058
C 0.4279 -3.7629 -2.8493
H 0.4812 -5.1563 -5.9342
H 0.5084 -7.1976 -4.5088
H 0.4793 -6.9414 -2.0343
H 0.4054 -2.8149 -2.3188

