# closed shell KS, PBE0/def2-SVP/D4
! DFT SP RKS PBE0 def2-TZVP D4 Grid6 NOFINALGRID SlowConv TightSCF printbasis

%base "_bB"
%maxcore 4000
%scf
   MaxIter 2000
end

%pal
   nprocs 48
end

* xyzfile 0 1 binolB_dopt.xyz

