# closed shell KS, PBE0/def2-SVP/D4
! DFT SP RKS PBE0 def2-TZVP D4 Grid6 NOFINALGRID SlowConv TightSCF printbasis

%base "_fe7dd_xtb_dft_sg56_2_2"
%maxcore 4000
%scf
   MaxIter 2000
end

%pal
   nprocs 48
end

* xyzfile 0 1 fe7dd_xtb_dft_sg56_2_2.xyz

