%nprocshared=48
%mem=120GB
%chk=m4_l1_opt.chk
# SP PBE1PBE/def2svp empiricaldispersion=GD3BJ scrf=(solvent=dmso) 

m4_l1

8 1
 Pd                 10.19300000   -1.77800000    0.08600000
 Pd                  0.95400000    9.09400000   -0.12200000
 Pd                 -9.90800000   -0.11900000    0.76300000
 Pd                 -0.66700000  -10.99300000    0.95800000
 C                  9.12300000    0.30800000    1.73800000
 N                 10.29500000   -0.23300000    1.38200000
 C                 11.41300000    0.43100000    1.69300000
 C                 11.40000000    1.65300000    2.33500000
 C                 10.18200000    2.25400000    2.68200000
 C                 10.09600000    3.56800000    3.31300000
 C                 11.09600000    3.99800000    4.20500000
 C                 11.03400000    5.22300000    4.83500000
 C                  9.95100000    6.04100000    4.54900000
 O                  9.70600000    7.26600000    5.05500000
 C                  8.54700000    7.69400000    4.51600000
 C                  7.91100000    8.90200000    4.76100000
 C                  6.72500000    9.14600000    4.10200000
 C                  6.15500000    8.20900000    3.22100000
 C                  4.88500000    8.49100000    2.56000000
 C                  3.97900000    7.46000000    2.26300000
 C                  2.81000000    7.73900000    1.59400000
 N                  2.47200000    8.97400000    1.20500000
 C                  3.30200000    9.97800000    1.50800000
 C                  4.49400000    9.78200000    2.17600000
 C                  6.80500000    6.99500000    2.98400000
 C                  8.00400000    6.73800000    3.62500000
 C                  8.93700000    5.63900000    3.64700000
 C                  9.00800000    4.40000000    3.03500000
 C                  9.02400000    1.52100000    2.37800000
 H                  8.22700000   -0.26600000    1.49800000
 H                 12.35200000   -0.03900000    1.41100000
 H                 12.33400000    2.15000000    2.54100000
 H                 11.91600000    3.33900000    4.43800000
 H                 11.79600000    5.54000000    5.52800000
 H                  8.33400000    9.61800000    5.44600000
 H                  6.20300000   10.06800000    4.30300000
 H                  4.18500000    6.44900000    2.57400000
 H                  2.10400000    6.94200000    1.36000000
 H                  2.99500000   10.97300000    1.19800000
 H                  5.13200000   10.62800000    2.37400000
 H                  6.40500000    6.27900000    2.28100000
 H                  8.25200000    4.10500000    2.32400000
 H                  8.05300000    1.89400000    2.66300000
 C                  8.99300000    0.13400000   -1.68300000
 N                 10.19100000   -0.37300000   -1.36400000
 C                 11.28000000    0.25100000   -1.82600000
 C                 11.21300000    1.40100000   -2.58700000
 C                  9.97000000    1.96900000   -2.90000000
 C                  9.83100000    3.21100000   -3.65400000
 C                 10.75800000    3.54400000   -4.65800000
 C                 10.64400000    4.69700000   -5.40500000
 C                  9.58100000    5.54300000   -5.12500000
 O                  9.29300000    6.71000000   -5.73400000
 C                  8.17600000    7.19500000   -5.15700000
 C                  7.51800000    8.37300000   -5.47700000
 C                  6.38400000    8.68800000   -4.75800000
 C                  5.88700000    7.85000000   -3.74400000
 C                  4.67000000    8.20300000   -3.02100000
 C                  3.79400000    7.21200000   -2.55000000
 C                  2.67800000    7.56200000   -1.82600000
 N                  2.36600000    8.83300000   -1.54100000
 C                  3.16700000    9.79700000   -2.00900000
 C                  4.30500000    9.52800000   -2.74300000
 C                  6.55800000    6.66400000   -3.43300000
 C                  7.70600000    6.33800000   -4.13300000
 C                  8.64000000    5.24000000   -4.11200000
 C                  8.76400000    4.07100000   -3.38200000
 C                  8.84100000    1.27400000   -2.43600000
 H                  8.12000000   -0.40900000   -1.31900000
 H                 12.23900000   -0.19100000   -1.56900000
 H                 12.12700000    1.87100000   -2.91200000
 H                 11.56200000    2.86100000   -4.88300000
 H                 11.35000000    4.93900000   -6.18300000
 H                  7.88500000    9.01300000   -6.26300000
 H                  5.84400000    9.58600000   -5.01400000
 H                  3.97900000    6.17300000   -2.77100000
 H                  1.99500000    6.79700000   -1.45800000
 H                  2.88100000   10.82000000   -1.78000000
 H                  4.92200000   10.34700000   -3.07600000
 H                  6.21600000    6.02700000   -2.63100000
 H                  8.06400000    3.85300000   -2.58900000
 H                  7.85100000    1.62000000   -2.68200000
 C                  8.81500000   -3.47600000    1.94000000
 N                 10.05600000   -3.17100000    1.54100000
 C                 11.05600000   -3.96700000    1.93300000
 C                 10.85200000   -5.09500000    2.70300000
 C                  9.55600000   -5.45300000    3.10000000
 C                  9.26500000   -6.66000000    3.86800000
 C                 10.18900000   -7.14500000    4.81200000
 C                  9.93700000   -8.26900000    5.57100000
 C                  8.73500000   -8.92800000    5.36400000
 O                  8.30100000  -10.03700000    5.99600000
 C                  7.08500000  -10.33000000    5.49500000
 C                  6.26600000  -11.38800000    5.86300000
 C                  5.05100000  -11.50900000    5.22100000
 C                  4.63200000  -10.59500000    4.23800000
 C                  3.32800000  -10.74000000    3.59800000
 C                  2.59700000   -9.61600000    3.18200000
 C                  1.39400000   -9.77500000    2.53600000
 N                  0.86000000  -10.97600000    2.27800000
 C                  1.52100000  -12.06000000    2.69700000
 C                  2.73400000  -11.98600000    3.35200000
 C                  5.46600000   -9.53300000    3.87800000
 C                  6.69500000   -9.40200000    4.50000000
 C                  7.79200000   -8.47000000    4.41200000
 C                  8.05700000   -7.33300000    3.67100000
 C                  8.52800000   -4.58100000    2.70700000
 H                  8.02100000   -2.79600000    1.63100000
 H                 12.05600000   -3.68700000    1.61100000
 H                 11.69600000   -5.71000000    2.97000000
 H                 11.10600000   -6.60300000    4.98100000
 H                 10.64300000   -8.62600000    6.30200000
 H                  6.57400000  -12.08300000    6.62600000
 H                  4.39000000  -12.30800000    5.51600000
 H                  2.96400000   -8.62300000    3.38400000
 H                  0.82200000   -8.90600000    2.20900000
 H                  1.05700000  -13.02100000    2.49300000
 H                  3.23000000  -12.89700000    3.64700000
 H                  5.18100000   -8.84300000    3.09700000
 H                  7.35200000   -7.00000000    2.92400000
 H                  7.51200000   -4.76100000    3.02000000
 C                  8.68800000   -3.65100000   -1.47900000
 N                  9.95400000   -3.31200000   -1.20500000
 C                 10.92500000   -4.14700000   -1.58700000
 C                 10.66900000   -5.34700000   -2.22100000
 C                  9.34900000   -5.73900000   -2.48300000
 C                  9.00700000   -7.01600000   -3.10100000
 C                  9.86100000   -7.59800000   -4.05600000
 C                  9.55800000   -8.79200000   -4.67600000
 C                  8.37600000   -9.42200000   -4.31600000
 O                  7.90000000  -10.58600000   -4.80000000
 C                  6.72400000  -10.82200000   -4.18400000
 C                  5.88400000  -11.90800000   -4.38300000
 C                  4.72000000  -11.95900000   -3.64500000
 C                  4.37200000  -10.94800000   -2.73000000
 C                  3.12000000  -11.02300000   -1.98400000
 C                  2.41700000   -9.86000000   -1.63100000
 C                  1.26600000   -9.94800000   -0.88400000
 N                  0.75700000  -11.11400000   -0.46800000
 C                  1.38900000  -12.23800000   -0.82300000
 C                  2.55000000  -12.23500000   -1.57100000
 C                  5.22700000   -9.85900000   -2.54100000
 C                  6.40600000   -9.79700000   -3.26200000
 C                  7.50400000   -8.86600000   -3.35000000
 C                  7.81900000   -7.66000000   -2.74900000
 C                  8.35000000   -4.82700000   -2.10600000
 H                  7.91600000   -2.94000000   -1.18300000
 H                 11.94500000   -3.83900000   -1.37000000
 H                 11.49400000   -5.98900000   -2.48600000
 H                 10.76200000   -7.08000000   -4.34500000
 H                 10.20900000   -9.22500000   -5.41700000
 H                  6.13700000  -12.67800000   -5.09200000
 H                  4.04100000  -12.78100000   -3.80800000
 H                  2.76500000   -8.89300000   -1.96000000
 H                  0.71700000   -9.04800000   -0.60600000
 H                  0.94500000  -13.17200000   -0.48800000
 H                  3.02600000  -13.17300000   -1.80800000
 H                  4.99700000   -9.09300000   -1.81600000
 H                  7.16900000   -7.25000000   -1.98900000
 H                  7.31400000   -5.03400000   -2.32400000
 C                 -8.70700000   -2.03300000    2.53100000
 N                 -9.90500000   -1.52600000    2.21200000
 C                -10.99400000   -2.15000000    2.67300000
 C                -10.92700000   -3.30100000    3.43200000
 C                 -9.68400000   -3.86900000    3.74500000
 C                 -9.54500000   -5.11300000    4.49600000
 C                -10.47300000   -5.44700000    5.50000000
 C                -10.35900000   -6.60200000    6.24500000
 C                 -9.29700000   -7.44800000    5.96200000
 O                 -9.01000000   -8.61700000    6.56900000
 C                 -7.89300000   -9.10200000    5.99000000
 C                 -7.23600000  -10.28100000    6.30800000
 C                 -6.10200000  -10.59500000    5.58900000
 C                 -5.60400000   -9.75400000    4.57700000
 C                 -4.38600000  -10.10700000    3.85400000
 C                 -3.51000000   -9.11400000    3.38600000
 C                 -2.39300000   -9.46400000    2.66300000
 N                 -2.08100000  -10.73400000    2.37600000
 C                 -2.88200000  -11.69800000    2.84100000
 C                 -4.02100000  -11.43100000    3.57400000
 C                 -6.27500000   -8.56800000    4.26800000
 C                 -7.42300000   -8.24300000    4.96900000
 C                 -8.35600000   -7.14400000    4.95000000
 C                 -8.47900000   -5.97300000    4.22300000
 C                 -8.55500000   -3.17500000    3.28200000
 H                 -7.83400000   -1.48900000    2.16700000
 H                -11.95300000   -1.70800000    2.41600000
 H                -11.84100000   -3.77200000    3.75700000
 H                -11.27600000   -4.76400000    5.72600000
 H                -11.06500000   -6.84500000    7.02200000
 H                 -7.60300000  -10.92300000    7.09200000
 H                 -5.56200000  -11.49400000    5.84200000
 H                 -3.69500000   -8.07600000    3.60800000
 H                 -1.70900000   -8.69700000    2.29700000
 H                 -2.59600000  -12.72100000    2.61100000
 H                 -4.63900000  -12.25100000    3.90400000
 H                 -5.93100000   -7.92900000    3.46800000
 H                 -7.77900000   -5.75400000    3.43000000
 H                 -7.56400000   -3.52000000    3.52800000
 C                 -8.83700000   -2.20400000   -0.88900000
 N                -10.00900000   -1.66400000   -0.53400000
 C                -11.12700000   -2.32700000   -0.84700000
 C                -11.11300000   -3.54800000   -1.49100000
 C                 -9.89400000   -4.14900000   -1.83800000
 C                 -9.80700000   -5.46000000   -2.47100000
 C                -10.80600000   -5.88900000   -3.36500000
 C                -10.74300000   -7.11300000   -3.99900000
 C                 -9.65900000   -7.93000000   -3.71500000
 O                 -9.41300000   -9.15300000   -4.22400000
 C                 -8.25400000   -9.58200000   -3.68600000
 C                 -7.61700000  -10.78900000   -3.93500000
 C                 -6.43100000  -11.03400000   -3.27500000
 C                 -5.86300000  -10.10000000   -2.38900000
 C                 -4.59400000  -10.38300000   -1.72800000
 C                 -3.68900000   -9.35300000   -1.42700000
 C                 -2.52100000   -9.63400000   -0.75700000
 N                 -2.18400000  -10.87000000   -0.37000000
 C                 -3.01300000  -11.87300000   -0.67700000
 C                 -4.20400000  -11.67600000   -1.34700000
 C                 -6.51400000   -8.88700000   -2.15000000
 C                 -7.71200000   -8.62900000   -2.79100000
 C                 -8.64600000   -7.53000000   -2.81100000
 C                 -8.72000000   -6.29300000   -2.19500000
 C                 -8.73700000   -3.41500000   -1.53200000
 H                 -7.94100000   -1.63000000   -0.64800000
 H                -12.06600000   -1.85800000   -0.56500000
 H                -12.04700000   -4.04500000   -1.69800000
 H                -11.62700000   -5.23000000   -3.59600000
 H                -11.50400000   -7.42800000   -4.69400000
 H                 -8.03900000  -11.50300000   -4.62200000
 H                 -5.90800000  -11.95500000   -3.47800000
 H                 -3.89400000   -8.34100000   -1.73500000
 H                 -1.81500000   -8.83800000   -0.51900000
 H                 -2.70700000  -12.86900000   -0.36900000
 H                 -4.84200000  -12.52100000   -1.54800000
 H                 -6.11500000   -8.17300000   -1.44400000
 H                 -7.96300000   -5.99900000   -1.48300000
 H                 -7.76600000   -3.78700000   -1.81600000
 C                 -0.97800000    8.04900000    1.72200000
 N                 -0.46900000    9.21600000    1.30500000
 C                 -1.10100000   10.33900000    1.66000000
 C                 -2.26100000   10.33700000    2.40900000
 C                 -2.83100000    9.12400000    2.82300000
 C                 -4.08200000    9.04900000    3.57100000
 C                 -4.42900000   10.06100000    4.48500000
 C                 -5.59100000   10.00900000    5.22600000
 C                 -6.43100000    8.92300000    5.03000000
 O                 -7.60500000    8.68600000    5.64900000
 C                 -8.08100000    7.52100000    5.16800000
 C                 -9.26100000    6.89000000    5.53100000
 C                 -9.56600000    5.69600000    4.91100000
 C                 -8.71400000    5.11400000    3.95400000
 C                 -9.05700000    3.83800000    3.33600000
 C                 -8.05900000    2.92600000    2.95600000
 C                 -8.40000000    1.75200000    2.32800000
 N                 -9.66600000    1.41300000    2.05600000
 C                -10.63700000    2.24800000    2.44100000
 C                -10.37900000    3.44700000    3.07700000
 C                 -7.52700000    5.75900000    3.59900000
 C                 -7.21100000    6.96500000    4.19900000
 C                 -6.11400000    7.89700000    4.10800000
 C                 -4.93700000    7.95900000    3.38500000
 C                 -2.12800000    7.96100000    2.47000000
 H                 -0.42900000    7.14900000    1.44300000
 H                 -0.65700000   11.27300000    1.32500000
 H                 -2.73700000   11.27400000    2.64600000
 H                 -3.75100000   10.88300000    4.64600000
 H                 -5.84300000   10.78000000    5.93500000
 H                 -9.91100000    7.32200000    6.27400000
 H                -10.46500000    5.17800000    5.20300000
 H                 -7.02400000    3.13300000    3.17100000
 H                 -7.62900000    1.04000000    2.02900000
 H                -11.65700000    1.94100000    2.22600000
 H                -11.20200000    4.08900000    3.34400000
 H                 -6.87900000    5.35000000    2.83800000
 H                 -4.70800000    7.19300000    2.65900000
 H                 -2.47500000    6.99500000    2.79800000
 C                 -1.10900000    7.87600000   -1.69800000
 N                 -0.57500000    9.07600000   -1.44000000
 C                 -1.23600000   10.16100000   -1.85700000
 C                 -2.45000000   10.08800000   -2.51000000
 C                 -3.04500000    8.84200000   -2.75600000
 C                 -4.35100000    8.69800000   -3.39200000
 C                 -4.77100000    9.61400000   -4.37400000
 C                 -5.98700000    9.49400000   -5.01300000
 C                 -6.80600000    8.43600000   -4.64400000
 O                 -8.02400000    8.14400000   -5.14300000
 C                 -8.45700000    7.03600000   -4.51100000
 C                 -9.66000000    6.37700000   -4.71500000
 C                 -9.91100000    5.25200000   -3.95700000
 C                 -8.98600000    4.76600000   -3.01600000
 C                 -9.27500000    3.55800000   -2.24900000
 C                 -8.24600000    2.68600000   -1.85900000
 C                 -8.53200000    1.58000000   -1.09200000
 N                 -9.77300000    1.27500000   -0.69000000
 C                -10.77300000    2.07200000   -1.08000000
 C                -10.57000000    3.20000000   -1.84900000
 C                 -7.77600000    5.43800000   -2.82100000
 C                 -7.51200000    6.57600000   -3.56200000
 C                 -6.41500000    7.50700000   -3.65100000
 C                 -5.18400000    7.63600000   -3.03200000
 C                 -2.31400000    7.71800000   -2.34200000
 H                 -0.53700000    7.00600000   -1.37300000
 H                 -0.77100000   11.12200000   -1.65300000
 H                 -2.94600000   10.99900000   -2.80300000
 H                 -4.11000000   10.41300000   -4.67000000
 H                 -6.29700000   10.19000000   -5.77500000
 H                -10.36700000    6.73600000   -5.44500000
 H                -10.82900000    4.71200000   -4.12400000
 H                 -7.23100000    2.86500000   -2.17400000
 H                 -7.73800000    0.89900000   -0.78500000
 H                -11.77200000    1.79200000   -0.75700000
 H                -11.41500000    3.81600000   -2.11500000
 H                 -7.06900000    5.10300000   -2.07600000
 H                 -4.89700000    6.94500000   -2.25300000
 H                 -2.68200000    6.72500000   -2.54400000


