%chk=_s_5d1_d.chk
%mem=60000mb
%nprocshared=32

#P PBE1PBE/Def2SVP SP  SCF=(YQC,MaxCycle=900) int=(Grid=Superfinegrid) EmpiricalDispersion=GD3BJ SCRF=(PCM,Solvent=DiMethylSulfoxide)

_s_5d1_d

4 1
Pd -0.4389 3.6155 -0.6348
Pd -0.5706 -5.4394 -0.7229
C 5.7343 -1.292 -0.7289
C 5.6158 -2.4729 -0.9601
C 5.3429 -3.8376 -1.1854
C 6.3343 -4.7483 -1.4998
C 6.0281 -6.0998 -1.7034
C 4.7408 -6.5614 -1.5935
C 3.7011 -5.6642 -1.2705
C 2.3572 -6.0708 -1.1379
N 1.3937 -5.233 -0.8343
C 1.6673 -3.9144 -0.635
C 2.9349 -3.4213 -0.7392
C 3.9984 -4.2882 -1.0652
H 7.3567 -4.4139 -1.5904
H 6.8267 -6.783 -1.9488
H 4.5158 -7.6044 -1.7499
H 2.0851 -7.1089 -1.2904
H 0.8215 -3.2688 -0.3729
H 3.1464 -2.3772 -0.5723
C 5.8659 0.0739 -0.3956
C 7.0166 0.5265 0.254
C 7.1096 1.8524 0.6332
C 6.0767 2.7335 0.3644
C 4.9275 2.2986 -0.3005
C 4.8261 0.9627 -0.675
H 7.821 -0.1619 0.4631
H 7.9933 2.2032 1.1445
H 6.1582 3.7573 0.6949
H 3.9646 0.6096 -1.2198
C 3.854 3.2624 -0.5923
C 4.1604 4.5794 -0.9465
C 3.1395 5.4887 -1.1678
C 1.828 5.0652 -1.0481
N 1.5322 3.7972 -0.7404
C 2.5039 2.9174 -0.5121
H 5.1892 4.8839 -1.0575
H 3.361 6.5103 -1.4313
H 0.9937 5.7535 -1.2084
H 2.1903 1.9174 -0.2349
C -0.6134 -0.6772 5.5704
C -0.3833 0.507 5.4881
C -0.1538 1.8783 5.2549
C 0.1109 2.769 6.2785
C 0.3196 4.1278 6.0105
C 0.2635 4.6166 4.7298
C -0.0082 3.7407 3.6578
C -0.088 4.1763 2.3188
N -0.3451 3.3582 1.3254
C -0.544 2.0322 1.5614
C -0.4895 1.5119 2.8211
C -0.217 2.3574 3.9163
H 0.1582 2.413 7.2965
H 0.5255 4.7948 6.8336
H 0.4229 5.6651 4.5344
H 0.0674 5.2212 2.0764
H -0.762 1.4028 0.6911
H -0.6565 0.4621 3.0024
C -0.9433 -2.0474 5.6581
C -1.6218 -2.5326 6.7785
C -1.9945 -3.8627 6.8281
C -1.6909 -4.7162 5.7817
C -0.9976 -4.2485 4.6626
C -0.6297 -2.9083 4.6047
H -1.8577 -1.8658 7.5937
H -2.5276 -4.2385 7.6882
H -2.0158 -5.7439 5.8287
H -0.0638 -2.5308 3.7674
C -0.6705 -5.1833 3.5738
C -0.312 -6.5044 3.8569
C -0.0582 -7.3868 2.8201
C -0.1525 -6.9332 1.5165
N -0.4649 -5.6613 1.2439
C -0.7223 -4.8067 2.2309
H -0.223 -6.8327 4.8806
H 0.2096 -8.4111 3.0231
H 0.0332 -7.5996 0.67
H -0.9999 -3.8013 1.935
C -6.7549 -1.1209 -0.6877
C -6.6745 -2.3088 -0.4771
C -6.4423 -3.6846 -0.275
C -7.4618 -4.5738 0.0098
C -7.1948 -5.9369 0.1899
C -5.9194 -6.4314 0.0853
C -4.8518 -5.557 -0.2079
C -3.5181 -5.9977 -0.3347
N -2.5289 -5.1806 -0.6104
C -2.764 -3.8511 -0.7846
C -4.0187 -3.3256 -0.6843
C -5.1092 -4.1695 -0.3885
H -8.4758 -4.2133 0.0951
H -8.0146 -6.6026 0.4125
H -5.7247 -7.4831 0.2232
H -3.2761 -7.0457 -0.2013
H -1.8976 -3.2235 -1.0227
H -4.1996 -2.2728 -0.8316
C -6.8414 0.2542 -0.9971
C -7.9688 0.7527 -1.6539
C -8.0172 2.0875 -2.0097
C -6.9626 2.9323 -1.7102
C -5.8364 2.4512 -1.0378
C -5.7797 1.1063 -0.6872
H -8.7902 0.0925 -1.8867
H -8.8826 2.4738 -2.5265
H -7.009 3.964 -2.0224
H -4.9367 0.7179 -0.1375
C -4.7396 3.3774 -0.7133
C -5.0132 4.6954 -0.3367
C -3.9701 5.571 -0.0851
C -2.6696 5.1131 -0.1987
N -2.4057 3.8435 -0.5281
C -3.3989 2.9959 -0.7843
H -6.0344 5.0267 -0.232
H -4.1659 6.5931 0.1963
H -1.8183 5.7743 -0.0155
H -3.1097 1.9928 -1.0764
C -0.4989 -0.5572 -6.9213
C -0.6972 0.6305 -6.8119
C -0.8866 2.0024 -6.5477
C -1.1616 2.9176 -7.5468
C -1.3299 4.2757 -7.2485
C -1.2235 4.7395 -5.9617
C -0.9401 3.8379 -4.9142
C -0.8126 4.2464 -3.5704
N -0.5456 3.4044 -2.5998
C -0.3814 2.0793 -2.8659
C -0.4838 1.5839 -4.1326
C -0.7709 2.4553 -5.2036
H -1.2485 2.5816 -8.5689
H -1.5451 4.9622 -8.0529
H -1.3526 5.7875 -5.7429
H -0.9379 5.2896 -3.3044
H -0.1495 1.4296 -2.0144
H -0.3447 0.5344 -4.3377
C -0.2038 -1.9328 -7.0428
C 0.4416 -2.4102 -8.1858
C 0.7832 -3.7469 -8.269
C 0.4807 -4.6144 -7.2338
C -0.1805 -4.1543 -6.0923
C -0.5169 -2.8076 -6.0007
H 0.6768 -1.7324 -8.9921
H 1.291 -4.1171 -9.1467
H 0.7819 -5.6477 -7.3074
H -1.058 -2.4345 -5.1454
C -0.5081 -5.1038 -5.0164
C -0.8982 -6.4115 -5.3191
C -1.1524 -7.3093 -4.2957
C -1.0282 -6.8836 -2.9853
N -0.686 -5.6237 -2.6933
C -0.4269 -4.755 -3.6674
H -1.0113 -6.7174 -6.3472
H -1.4441 -8.3238 -4.5142
H -1.2129 -7.5629 -2.1487
H -0.1237 -3.7618 -3.3561

