&GLOBAL
  PROJECT_NAME C_cl1_quad2_12_d32n_optc_opt
  RUN_TYPE GEO_OPT
  EXTENDED_FFT_LENGTHS
&END GLOBAL

! Force Evaluation
! ----------------
&FORCE_EVAL
  METHOD QS
  &DFT
    BASIS_SET_FILE_NAME BASIS_MOLOPT
    POTENTIAL_FILE_NAME GTH_POTENTIALS
    CHARGE 16
    &QS
      EPS_DEFAULT 1.0E-10
    &END QS
    &MGRID
      NGRIDS 5
     CUTOFF 700
     REL_CUTOFF 60
    &END MGRID
    &SCF
      SCF_GUESS ATOMIC
      EPS_SCF 5.0E-7
      MAX_SCF 300
      &OT
        PRECONDITIONER FULL_SINGLE_INVERSE
        MINIMIZER DIIS
      &END OT
      &OUTER_SCF ! Repeat the inner SCF cycle 10 times
        MAX_SCF 10
        EPS_SCF 5.0E-7 ! Must match the above
      &END
      &PRINT
        &RESTART ON
        FILENAME C_cl1_quad2_12_d32n_optc_opt.res
      &END
      &END
    &END SCF

    ! Exchange-Correlation
    ! -------------------
    &XC
      &VDW_POTENTIAL
        POTENTIAL_TYPE PAIR_POTENTIAL
        &PAIR_POTENTIAL
          TYPE DFTD3
          CALCULATE_C9_TERM .TRUE.
          PARAMETER_FILE_NAME dftd3.dat
          REFERENCE_FUNCTIONAL PBE
          R_CUTOFF 10.
          EPS_CN 0.01
        &END PAIR_POTENTIAL
      &END VDW_POTENTIAL
      &XC_FUNCTIONAL PBE
      &END XC_FUNCTIONAL
    &END XC
  &END DFT
  &PRINT
    &FORCES ON
    &END FORCES
  &END PRINT

&SUBSYS
! Cell
! ----
&CELL
  ABC 57.56 57.56 57.56
  ALPHA_BETA_GAMMA 90.0 90.0 90.0
  PERIODIC NONE
&END CELL

! Coordinates
! -----------
&COORD
C -6.292700 4.923800 8.543600
C -6.256900 3.908000 9.505300
C -5.405200 2.835400 9.346300
C -4.564400 2.748400 8.235500
C -3.644900 1.611700 8.086200
C -4.085800 0.316600 8.215200
C -3.196000 -0.761100 8.048700
C -3.671700 -2.080100 8.121700
C -2.822700 -3.148700 7.942200
C -3.390900 -4.504300 7.993500
C -3.082300 -5.479600 7.046700
C -3.751000 -6.690300 7.037600
C -4.763800 -6.934000 7.964900
C -5.026200 -5.993600 8.960600
C -4.336800 -4.802400 8.977700
C -1.460400 -2.910500 7.705200
C -0.934700 -1.629600 7.667900
C 0.492500 -1.373600 7.476800
C 1.435100 -2.389900 7.438100
C 2.805800 -2.132000 7.268200
C 3.858100 -3.152700 7.367400
C 5.025000 -3.005800 6.609900
C 6.144200 -3.760000 6.878500
C 6.102600 -4.741000 7.872000
C 4.906900 -4.981900 8.547700
C 3.806900 -4.179400 8.311300
C 3.221200 -0.829100 7.105500
C 2.310300 0.233500 7.174700
C 2.785000 1.552600 7.115700
C 1.941800 2.614400 7.346400
C 2.545500 3.948100 7.467500
C 3.526800 4.352900 6.558500
C 4.285800 5.476300 6.796700
C 4.050800 6.249900 7.935400
C 3.011700 5.901300 8.803000
C 2.275800 4.756400 8.572400
C 0.578600 2.366300 7.556500
C 0.054500 1.084300 7.535500
C -1.366400 0.825000 7.726700
C -2.289000 1.849800 7.818800
C -1.815100 -0.520900 7.814700
C 0.931200 -0.023300 7.382200
C -4.594500 3.771300 7.286200
C -5.443100 4.847300 7.437700
H -6.859000 3.986400 10.397900
H -5.371700 2.067800 10.104300
H -5.125200 0.107900 8.417800
H -4.724900 -2.241700 8.292900
H -2.345200 -5.274300 6.286800
H -3.557300 -7.423600 6.270200
H -5.750500 -6.222300 9.725500
H -4.534100 -4.090600 9.764200
H -0.822200 -3.768500 7.576000
H 1.132000 -3.417700 7.546800
H 5.057900 -2.282900 5.811300
H 7.049200 -3.631200 6.306400
H 4.876800 -5.745000 9.308800
H 2.917200 -4.322700 8.904100
H 4.268700 -0.595800 7.006000
H 3.839600 1.713500 6.961100
H 3.702900 3.771600 5.667900
H 5.056300 5.781800 6.107700
H 2.843100 6.481100 9.697800
H 1.522200 4.457700 9.284500
H -0.057200 3.216700 7.734400
H -1.979900 2.876000 7.720100
H -3.967900 3.704800 6.411000
H -5.495800 5.618700 6.686500
C 7.918000 6.008900 -4.743100
C 8.983300 5.952700 -3.838500
C 8.948800 5.060700 -2.787400
C 7.865000 4.198500 -2.619300
C 7.845600 3.242100 -1.501200
C 8.002400 3.672200 -0.206500
C 7.940500 2.756200 0.859900
C 7.994000 3.219400 2.184000
C 7.865500 2.349000 3.242300
C 7.791900 2.915700 4.597100
C 6.786300 2.540000 5.488000
C 6.606800 3.219000 6.676100
C 7.420400 4.309200 6.997700
C 8.483900 4.628800 6.152700
C 8.667500 3.936200 4.975100
C 7.759600 0.972600 2.988700
C 7.774700 0.460400 1.701900
C 7.765900 -0.975600 1.426000
C 7.826000 -1.929000 2.430800
C 7.845000 -3.306000 2.153500
C 7.890300 -4.348300 3.188100
C 7.144700 -5.514900 2.993500
C 7.238900 -6.574800 3.865400
C 8.046800 -6.476500 5.000300
C 8.777500 -5.308800 5.217400
C 8.708200 -4.263800 4.313900
C 7.836800 -3.722300 0.842300
C 7.782100 -2.795100 -0.206800
C 7.786000 -3.253600 -1.532200
C 7.680500 -2.372700 -2.581500
C 7.686100 -2.938000 -3.939400
C 8.693000 -3.848500 -4.266100
C 8.648400 -4.553700 -5.446900
C 7.590700 -4.364200 -6.337600
C 6.629100 -3.389800 -6.057500
C 6.677600 -2.688600 -4.867600
C 7.596000 -1.000100 -2.315900
C 7.654700 -0.500500 -1.024300
C 7.701600 0.929600 -0.746100
C 7.673900 1.874400 -1.755700
C 7.809600 1.364900 0.602900
C 7.729600 -1.404800 0.069400
C 6.809800 4.251200 -3.530500
C 6.833700 5.143700 -4.581500
H 9.854900 6.572000 -3.988400
H 9.782100 5.013000 -2.103000
H 8.140800 4.720800 0.008400
H 8.087700 4.280100 2.356900
H 6.115500 1.739700 5.218600
H 5.790300 2.965400 7.333500
H 9.176200 5.401100 6.444800
H 9.502100 4.187000 4.337700
H 7.695900 0.315600 3.839800
H 7.854200 -1.630000 3.465000
H 6.480100 -5.586600 2.148200
H 6.657300 -7.469000 3.708000
H 9.445700 -5.254500 6.061800
H 9.322000 -3.389900 4.470100
H 7.906700 -4.770500 0.598400
H 7.853700 -4.315000 -1.711600
H 9.516200 -4.001000 -3.584900
H 9.443300 -5.230700 -5.708100
H 5.810200 -3.244300 -6.743800
H 5.903800 -1.976100 -4.631600
H 7.534400 -0.337200 -3.161800
H 7.564200 1.577200 -2.784300
H 5.957600 3.604400 -3.395300
H 6.002900 5.217700 -5.265300
C -6.249200 7.949300 -4.219200
C -5.056100 8.603800 -4.524000
C -3.968800 8.507300 -3.673600
C -4.037600 7.737400 -2.513900
C -2.962300 7.689600 -1.512700
C -3.343400 7.789300 -0.194200
C -2.396100 7.728000 0.835900
C -2.822000 7.822500 2.169300
C -1.928700 7.684200 3.204600
C -2.456700 7.761700 4.574400
C -2.220500 6.776000 5.531300
C -2.884200 6.800000 6.743100
C -3.806600 7.813000 7.020200
C -3.979700 8.845500 6.096900
C -3.313100 8.817800 4.893400
C -0.572800 7.487600 2.912700
C -0.099400 7.473300 1.610300
C 1.322900 7.396000 1.302400
C 2.285200 7.424000 2.294300
C 3.659400 7.384500 2.011200
C 4.645500 7.481400 3.094100
C 5.834500 6.751500 3.046200
C 6.777500 6.867200 4.045500
C 6.530800 7.687500 5.148400
C 5.345200 8.420400 5.206700
C 4.426100 8.328300 4.183300
C 4.063100 7.290400 0.699500
C 3.119600 7.275900 -0.343200
C 3.558700 7.235700 -1.675600
C 2.659500 7.244600 -2.717300
C 3.206000 7.222700 -4.084500
C 4.272000 8.075500 -4.384100
C 4.932600 7.991200 -5.588900
C 4.525500 7.057300 -6.541900
C 3.413000 6.254700 -6.284000
C 2.768900 6.331200 -5.062400
C 1.285400 7.293800 -2.437100
C 0.802100 7.362800 -1.139100
C -0.623300 7.493400 -0.834200
C -1.597800 7.559200 -1.819500
C -1.020400 7.563000 0.531600
C 1.729300 7.340400 -0.059000
C -5.227300 7.056300 -2.237800
C -6.325300 7.177800 -3.057100
H -5.012400 9.240800 -5.393000
H -3.072600 9.066400 -3.895700
H -4.378400 7.943400 0.067300
H -3.871700 7.974400 2.366000
H -1.545500 5.966400 5.303100
H -2.751400 5.998800 7.452400
H -4.612600 9.677900 6.351500
H -3.451900 9.624200 4.189700
H 0.102600 7.387300 3.745200
H 1.998200 7.472400 3.330500
H 6.009000 6.073900 2.226200
H 7.683200 6.281800 4.022200
H 5.182500 9.092200 6.033600
H 3.538400 8.939700 4.219300
H 5.110900 7.279800 0.443200
H 4.618800 7.188600 -1.871900
H 4.582900 8.814900 -3.662400
H 5.743500 8.662300 -5.819700
H 3.114800 5.527300 -7.023200
H 1.945700 5.668400 -4.847700
H 0.609700 7.318200 -3.275600
H -1.326800 7.494700 -2.859800
H -5.287200 6.423800 -1.367200
H -7.237000 6.646900 -2.834700
C -8.218200 4.819000 -5.521600
C -9.361600 4.149800 -5.074300
C -9.296200 3.355200 -3.949300
C -8.100400 3.210200 -3.243900
C -8.001900 2.173800 -2.196800
C -8.156200 0.875500 -2.618400
C -8.007400 -0.190400 -1.718000
C -8.107100 -1.511400 -2.181700
C -7.912200 -2.571400 -1.328300
C -8.000100 -3.935000 -1.869000
C -7.013800 -4.893900 -1.642600
C -7.062000 -6.118100 -2.281000
C -8.100600 -6.405400 -3.170800
C -9.129300 -5.477100 -3.338000
C -9.077300 -4.260700 -2.695400
C -7.657000 -2.320100 0.026400
C -7.628200 -1.034900 0.540200
C -7.512500 -0.773700 1.969600
C -7.483800 -1.797500 2.899300
C -7.513400 -1.552800 4.279500
C -7.604400 -2.680200 5.221100
C -8.654000 -2.725500 6.139900
C -8.784400 -3.784400 7.012800
C -7.850800 -4.826600 6.995600
C -6.804100 -4.788900 6.072000
C -6.684400 -3.728200 5.197600
C -7.513700 -0.255900 4.731800
C -7.478200 0.817400 3.822800
C -7.470100 2.137100 4.301100
C -7.462200 3.203600 3.431400
C -7.462400 4.557800 4.008900
C -6.559500 5.545000 3.619200
C -6.498200 6.749900 4.295900
C -7.330800 6.979400 5.392000
C -8.284700 6.023500 5.742100
C -8.350600 4.834800 5.051400
C -7.478800 2.963700 2.049500
C -7.527300 1.680300 1.528300
C -7.668000 1.420100 0.096000
C -7.746000 2.437200 -0.844600
C -7.765300 0.070400 -0.343700
C -7.500500 0.573400 2.423200
C -6.984600 3.937200 -3.651500
C -7.042000 4.739100 -4.774800
H -10.298000 4.271700 -5.598300
H -10.178800 2.828900 -3.618300
H -8.365000 0.663100 -3.655700
H -8.311100 -1.676300 -3.228200
H -6.184900 -4.658300 -0.994500
H -6.264500 -6.832100 -2.152400
H -9.980000 -5.737500 -3.943400
H -9.883000 -3.554800 -2.826700
H -7.528700 -3.173400 0.669800
H -7.498400 -2.826500 2.584000
H -9.388800 -1.934900 6.150600
H -9.636500 -3.831300 7.674000
H -6.069800 -5.578200 6.085700
H -5.857200 -3.694000 4.506700
H -7.534200 -0.043200 5.789500
H -7.459000 2.303700 5.367300
H -5.873900 5.350900 2.809600
H -5.757700 7.491700 4.039600
H -8.980800 6.239400 6.536000
H -9.100500 4.107700 5.321600
H -7.500900 3.821800 1.398900
H -7.646700 3.468500 -0.550500
H -6.057500 3.842400 -3.109500
H -6.164600 5.256400 -5.126200
C 4.513800 -6.782700 -7.622900
C 3.444500 -6.753800 -8.524900
C 2.410400 -5.861100 -8.341500
C 2.416200 -4.969700 -7.267100
C 1.314400 -4.011300 -7.101100
C 0.004900 -4.426300 -7.128500
C -1.041800 -3.497500 -6.982900
C -2.373500 -3.942000 -6.979900
C -3.415300 -3.052400 -6.847400
C -4.786000 -3.586500 -6.839100
C -5.736700 -3.196100 -5.897700
C -6.964900 -3.828600 -5.831900
C -7.253400 -4.885400 -6.695600
C -6.335500 -5.232900 -7.686600
C -5.125300 -4.581200 -7.759900
C -3.136100 -1.682500 -6.729700
C -1.841300 -1.190600 -6.765300
C -1.545800 0.241200 -6.731800
C -2.539700 1.208200 -6.698900
C -2.245400 2.581000 -6.712300
C -3.246200 3.655600 -6.760300
C -2.975300 4.846800 -6.078700
C -3.717100 5.981200 -6.311600
C -4.801600 5.935500 -7.191200
C -5.156300 4.722400 -7.781200
C -4.372600 3.601300 -7.581200
C -0.928800 2.978800 -6.769700
C 0.108200 2.038900 -6.814900
C 1.432700 2.482600 -6.939000
C 2.473100 1.587000 -6.992600
C 3.822700 2.138500 -7.192400
C 4.001800 3.029100 -8.253100
C 5.181500 3.721200 -8.400300
C 6.220300 3.538600 -7.486500
C 6.079500 2.584600 -6.475300
C 4.889200 1.896400 -6.330200
C 2.198200 0.216400 -6.910800
C 0.900400 -0.266000 -6.835200
C 0.600400 -1.692000 -6.870100
C 1.597500 -2.646800 -6.945500
C -0.758900 -2.109400 -6.869500
C -0.183500 0.651500 -6.784300
C 3.494400 -4.989300 -6.381500
C 4.531600 -5.881000 -6.556300
H 3.450300 -7.395800 -9.392800
H 1.599400 -5.835500 -9.053300
H -0.237900 -5.471200 -7.245800
H -2.566700 -5.000300 -7.064400
H -5.498700 -2.421200 -5.186400
H -7.679000 -3.570400 -5.065300
H -6.596400 -5.992600 -8.405400
H -4.431400 -4.846400 -8.542300
H -3.974900 -1.012200 -6.644800
H -3.578100 0.924500 -6.660200
H -2.162500 4.883800 -5.371800
H -3.495300 6.902600 -5.797500
H -5.997900 4.691400 -8.454400
H -4.611000 2.691300 -8.109200
H -0.674600 4.024500 -6.837800
H 1.621000 3.543100 -6.990700
H 3.205100 3.174700 -8.966400
H 5.327100 4.382400 -9.236800
H 6.880000 2.445400 -5.766300
H 4.765500 1.200000 -5.516600
H 3.035100 -0.458400 -6.965000
H 2.634600 -2.359800 -6.936100
H 3.501100 -4.320000 -5.536100
H 5.344900 -5.926400 -5.850100
C 4.818900 -8.180800 6.484800
C 4.071000 -9.313000 6.146700
C 3.249700 -9.287400 5.039800
C 3.153300 -8.143200 4.245100
C 2.086800 -8.060700 3.229400
C 0.800100 -8.164300 3.700400
C -0.292300 -8.015800 2.832900
C -1.598100 -8.061000 3.345700
C -2.681900 -7.862000 2.523800
C -4.026300 -7.885000 3.116800
C -4.959300 -6.873700 2.891700
C -6.156800 -6.854600 3.580000
C -6.443800 -7.849400 4.518800
C -5.546200 -8.905000 4.686300
C -4.355900 -8.919700 3.994400
C -2.472000 -7.661100 1.153000
C -1.205700 -7.690100 0.594000
C -0.992400 -7.635500 -0.846700
C -2.047900 -7.616500 -1.740200
C -1.853600 -7.704600 -3.125800
C -3.018000 -7.796100 -4.020800
C -3.133800 -8.877800 -4.894900
C -4.230400 -9.004900 -5.720600
C -5.238900 -8.035100 -5.701600
C -5.129700 -6.955100 -4.822900
C -4.032900 -6.839700 -3.994000
C -0.574500 -7.756300 -3.623000
C 0.531500 -7.713100 -2.754300
C 1.833000 -7.756400 -3.278200
C 2.930000 -7.741800 -2.447400
C 4.262100 -7.802300 -3.072400
C 4.477700 -8.743500 -4.082200
C 5.641700 -8.742200 -4.816900
C 6.634400 -7.801000 -4.545100
C 6.466800 -6.913700 -3.481700
C 5.286000 -6.910500 -2.760400
C 2.739500 -7.700100 -1.058200
C 1.474600 -7.697400 -0.491000
C 1.261800 -7.782500 0.953500
C 2.309000 -7.856600 1.860900
C -0.073700 -7.828100 1.443000
C 0.337500 -7.675300 -1.347100
C 3.960900 -7.047800 4.540800
C 4.790500 -7.066400 5.645100
H 4.152000 -10.210800 6.741300
H 2.663900 -10.159800 4.792300
H 0.618900 -8.329400 4.751500
H -1.731100 -8.224900 4.403800
H -4.722600 -6.077400 2.204500
H -6.847000 -6.036500 3.450700
H -5.810300 -9.724600 5.331900
H -3.673300 -9.744900 4.127600
H -3.343600 -7.527300 0.535700
H -3.064900 -7.594000 -1.388900
H -2.369100 -9.639500 -4.906400
H -4.332000 -9.880200 -6.344400
H -5.893200 -6.194000 -4.837100
H -3.944200 -5.987900 -3.338700
H -0.401200 -7.824100 -4.686000
H 1.961200 -7.790900 -4.349100
H 3.722000 -9.484500 -4.292000
H 5.809500 -9.479900 -5.584600
H 7.237900 -6.184600 -3.286100
H 5.140300 -6.184100 -1.976700
H 3.619600 -7.719400 -0.437500
H 3.331600 -7.796000 1.528200
H 3.905600 -6.162000 3.928700
H 5.369800 -6.198000 5.911100
Zn 7.027500 7.262200 8.238800
C 5.737500 11.824000 9.487400
C 4.837900 10.788300 9.289000
C 5.323300 9.539600 8.903700
H 3.780000 10.944500 9.428200
N 6.634100 9.308000 8.721300
C 4.436800 8.425800 8.650500
C 7.486100 10.302900 8.906100
C 7.088100 11.578100 9.287700
H 8.531000 10.083000 8.749900
H 7.821800 12.355100 9.428400
H 5.396600 12.802000 9.789300
N 4.898300 7.328300 8.178900
H 3.376100 8.579000 8.831600
C 6.128100 5.582300 12.745000
C 6.285200 4.770300 11.632700
C 6.617700 5.355600 10.412100
H 6.157100 3.702200 11.707800
N 6.775000 6.682500 10.276600
C 6.853600 4.556300 9.230100
C 6.641700 7.450300 11.346900
C 6.320600 6.948600 12.601600
H 6.800800 8.508500 11.206200
H 6.226400 7.617100 13.441900
H 5.870700 5.162600 13.704800
N 7.182600 5.105100 8.121900
H 6.790400 3.476400 9.343900
C 11.803500 8.154200 8.038800
C 10.957700 8.217300 6.941000
C 9.612000 7.898700 7.111800
H 11.331900 8.512200 5.973300
N 9.112900 7.531200 8.304000
C 8.670600 7.932200 6.009800
C 9.924500 7.467800 9.346400
C 11.278600 7.769000 9.264000
H 9.482500 7.162700 10.282600
H 11.904400 7.702300 10.139000
H 12.850000 8.397200 7.940600
N 7.425200 7.736600 6.220100
H 9.065600 8.137000 5.017000
Zn 7.576100 -7.544100 7.986800
C 11.864700 -5.694400 9.341600
C 10.730700 -4.934100 9.096300
C 9.561800 -5.581200 8.700700
H 10.750400 -3.862200 9.214000
N 9.502500 -6.914600 8.546500
C 8.336900 -4.855600 8.429800
C 10.587300 -7.634600 8.779100
C 11.793000 -7.070100 9.178300
H 10.497400 -8.701500 8.642100
H 12.651900 -7.696800 9.355300
H 12.786400 -5.226900 9.651000
N 7.250700 -5.482600 8.177000
H 8.376700 -3.768800 8.469400
C 5.881500 -8.802300 12.375200
C 5.174600 -8.948500 11.191500
C 5.754800 -8.509700 10.001900
H 4.192900 -9.395000 11.188200
N 6.974300 -7.948300 9.969300
C 5.054800 -8.602500 8.739600
C 7.640600 -7.804100 11.103500
C 7.137600 -8.214900 12.331600
H 8.615600 -7.346200 11.036400
H 7.719600 -8.080200 13.228700
H 5.463600 -9.136400 13.312000
N 5.556400 -8.108500 7.669300
H 4.068700 -9.061100 8.754600
C 8.673800 -12.172100 6.838200
C 8.604200 -11.134300 5.922000
C 8.315900 -9.849700 6.379800
H 8.776200 -11.314300 4.872700
N 8.092700 -9.587400 7.677100
C 8.272500 -8.719500 5.478700
C 8.168000 -10.581800 8.547600
C 8.455600 -11.889500 8.178800
H 7.998100 -10.333200 9.584100
H 8.508200 -12.664100 8.926600
H 8.896900 -13.177900 6.518300
N 8.103000 -7.530800 5.919600
H 8.432500 -8.922800 4.421900
Zn -7.676800 -7.997100 7.468400
C -6.500800 -12.717000 7.699100
C -5.581800 -11.688500 7.855500
C -6.020000 -10.373000 7.728400
H -4.548100 -11.902200 8.076500
N -7.302100 -10.073200 7.455400
C -5.120000 -9.241500 7.871400
C -8.173400 -11.056500 7.300500
C -7.819400 -12.396300 7.411900
H -9.188700 -10.767400 7.074800
H -8.561400 -13.166300 7.276200
H -6.194800 -13.747100 7.794400
N -5.592300 -8.057300 7.869800
H -4.058800 -9.446800 7.993900
C -8.929600 -7.677600 12.189400
C -8.865000 -6.598600 11.322200
C -8.470400 -6.815800 10.002000
H -9.116200 -5.605800 11.660600
N -8.151500 -8.037300 9.544800
C -8.363700 -5.722300 9.063800
C -8.210100 -9.061900 10.380400
C -8.591700 -8.934800 11.709700
H -7.947100 -10.029200 9.981300
H -8.625900 -9.801300 12.349700
H -9.234900 -7.543500 13.215300
N -7.929600 -5.907800 7.872400
H -8.631100 -4.735900 9.434000
C -12.268600 -7.291000 5.979400
C -11.161100 -7.186300 5.152100
C -9.907200 -7.519000 5.660300
H -11.266400 -6.855800 4.131000
N -9.736700 -7.926500 6.929300
C -8.719100 -7.492900 4.834600
C -10.800500 -8.044400 7.707400
C -12.086500 -7.739200 7.279300
H -10.629900 -8.399500 8.712400
H -12.920300 -7.853700 7.952900
H -13.254100 -7.038500 5.620300
N -7.584500 -7.820400 5.326200
H -8.846300 -7.246600 3.782900
Zn -6.729400 8.087200 8.286600
C -11.378400 7.894200 9.802000
C -10.528400 6.801100 9.747900
C -9.234000 6.975900 9.258600
H -10.859800 5.829600 10.078700
N -8.786200 8.169300 8.836300
C -8.315500 5.865800 9.155700
C -9.606400 9.206800 8.882900
C -10.909000 9.121800 9.357400
H -9.216000 10.149900 8.533900
H -11.536800 9.997600 9.379200
H -12.383600 7.792800 10.180200
N -7.151500 6.016700 8.641100
H -8.678700 4.898200 9.492200
C -5.193500 7.471900 12.879500
C -4.394900 7.284000 11.762200
C -4.904800 7.611000 10.507300
H -3.394800 6.893300 11.860200
N -6.150500 8.087300 10.345300
C -4.100900 7.512200 9.308400
C -6.898700 8.287400 11.418200
C -6.465700 7.996700 12.705800
H -7.882500 8.700200 11.253800
H -7.114100 8.180200 13.547100
H -4.832900 7.226200 13.866100
N -4.594700 7.834500 8.173200
H -3.059500 7.222300 9.427200
C -6.905800 12.783400 7.015600
C -7.113200 11.739400 6.124900
C -6.996200 10.430700 6.586800
H -7.364900 11.935900 5.094800
N -6.685800 10.152400 7.865200
C -7.191600 9.285400 5.715700
C -6.482900 11.150500 8.709400
C -6.580600 12.484500 8.330500
H -6.228600 10.878400 9.722500
H -6.405100 13.267300 9.050500
H -6.991700 13.808400 6.690600
N -7.186300 8.107300 6.206000
H -7.355400 9.475800 4.657300
Zn 7.372200 6.495500 -7.839500
C 8.782200 11.181600 -7.708300
C 8.852000 10.313300 -6.630200
C 8.377800 9.010600 -6.781600
H 9.267000 10.637400 -5.688900
N 7.854900 8.571600 -7.938000
C 8.401800 8.069100 -5.685600
C 7.783400 9.408800 -8.960000
C 8.232800 10.721500 -8.896300
H 7.354600 9.024700 -9.872400
H 8.156700 11.363800 -9.758500
H 9.146000 12.193800 -7.625100
N 7.893200 6.900400 -5.813700
H 8.828000 8.417000 -4.748200
C 12.050100 5.047200 -7.801600
C 10.978100 4.215500 -7.517800
C 9.684200 4.713300 -7.658400
H 11.140300 3.198500 -7.197900
N 9.443200 5.976600 -8.046300
C 8.521300 3.877600 -7.451700
C 10.470800 6.759100 -8.333500
C 11.791500 6.341300 -8.228700
H 10.240800 7.759500 -8.667300
H 12.593400 7.017100 -8.478200
H 13.065300 4.695800 -7.702600
N 7.346700 4.355000 -7.617500
H 8.694800 2.829800 -7.217400
C 5.786400 6.674100 -12.434400
C 4.966400 6.871700 -11.332300
C 5.515900 6.754700 -10.057800
H 3.923400 7.115300 -11.458500
N 6.812600 6.453600 -9.867000
C 4.722100 6.939700 -8.856700
C 7.589300 6.261000 -10.920300
C 7.121100 6.359300 -12.225400
H 8.620600 6.014700 -10.718400
H 7.789200 6.191900 -13.054500
H 5.393000 6.760000 -13.435200
N 5.283100 6.917200 -7.709700
H 3.654500 7.110000 -8.977800
Zn 7.662400 -7.339000 -7.500600
C 6.976700 -5.928000 -12.129300
C 6.882900 -5.078900 -11.037400
C 7.211600 -5.567500 -9.774800
H 6.564100 -4.056300 -11.161600
N 7.603400 -6.837800 -9.580100
C 7.204000 -4.717600 -8.603600
C 7.712500 -7.636200 -10.629500
C 7.411500 -7.228800 -11.923200
H 8.057900 -8.641400 -10.441400
H 7.519100 -7.918500 -12.744700
H 6.727200 -5.584400 -13.121100
N 7.530000 -5.192100 -7.461800
H 6.976100 -3.664400 -8.751500
C 12.386100 -7.707400 -6.391700
C 11.367800 -7.829500 -5.456300
C 10.050300 -7.659100 -5.873400
H 11.590800 -8.057500 -4.426000
N 9.739200 -7.376400 -7.150800
C 8.930500 -7.770800 -4.955600
C 10.713100 -7.253100 -8.037500
C 12.053900 -7.409300 -7.705100
H 10.415700 -7.017300 -9.048100
H 12.815900 -7.299100 -8.459400
H 13.417100 -7.837400 -6.102200
N 7.737000 -7.726400 -5.403600
H 9.152300 -7.910900 -3.899800
C 7.213300 -12.037000 -8.795100
C 6.160100 -11.138800 -8.730200
C 6.411600 -9.832300 -8.311200
H 5.160900 -11.442400 -8.999900
N 7.642000 -9.418000 -7.967800
C 5.345900 -8.864300 -8.196000
C 8.641500 -10.283500 -8.025600
C 8.479600 -11.601700 -8.431800
H 9.616100 -9.918800 -7.741100
H 9.326500 -12.267500 -8.464500
H 7.052600 -13.053500 -9.118800
N 5.567300 -7.686900 -7.740000
H 4.349100 -9.201300 -8.468200
Zn -8.414900 -7.740300 -6.058400
C -7.841900 -12.300300 -4.417700
C -7.645000 -11.167200 -3.643500
C -7.952100 -9.920700 -4.184700
H -7.263400 -11.247100 -2.638100
N -8.418000 -9.781300 -5.437300
C -7.839400 -8.704100 -3.409100
C -8.623400 -10.868200 -6.163400
C -8.352400 -12.149100 -5.698400
H -9.023900 -10.721300 -7.155100
H -8.540100 -13.002800 -6.329300
H -7.613000 -13.281500 -4.032100
N -8.146100 -7.577300 -3.931000
H -7.549900 -8.800700 -2.365100
C -13.087300 -6.378300 -6.189400
C -12.028700 -5.511700 -6.423600
C -10.728000 -5.996900 -6.313500
H -12.207900 -4.482300 -6.690600
N -10.471000 -7.275300 -5.984900
C -9.567100 -5.151500 -6.530700
C -11.482800 -8.096300 -5.755700
C -12.810300 -7.693100 -5.844600
H -11.227200 -9.109900 -5.486300
H -13.604700 -8.394400 -5.647400
H -14.106900 -6.035000 -6.269500
N -8.401500 -5.669100 -6.539900
H -9.735000 -4.089400 -6.694700
C -8.348000 -9.232700 -10.718900
C -7.231200 -9.172300 -9.900700
C -7.374600 -8.701300 -8.595600
H -6.265500 -9.485500 -10.264900
N -8.560200 -8.302500 -8.107600
C -6.239300 -8.600800 -7.708000
C -9.620800 -8.356300 -8.897300
C -9.567700 -8.813600 -10.207700
H -10.557800 -8.028100 -8.475100
H -10.461600 -8.841900 -10.809200
H -8.271000 -9.597200 -11.731300
N -6.357100 -8.108300 -6.530800
H -5.281400 -8.926400 -8.105300
Zn -7.547500 7.510000 -7.126500
C -12.020900 8.841100 -5.664700
C -10.924100 8.728700 -4.824800
C -9.690100 8.378900 -5.370900
H -11.020200 8.913900 -3.766800
N -9.532800 8.137000 -6.681700
C -8.501900 8.286400 -4.552200
C -10.581900 8.257500 -7.479800
C -11.845200 8.606400 -7.020700
H -10.415600 8.074400 -8.530300
H -12.667600 8.692600 -7.712200
H -12.990300 9.110300 -5.275200
N -7.356100 8.050300 -5.070800
H -8.622500 8.468200 -3.486300
C -5.655100 11.692900 -8.732200
C -4.923000 10.533300 -8.524400
C -5.580000 9.401800 -8.044600
H -3.865600 10.504800 -8.735000
N -6.895700 9.403000 -7.772900
C -4.883200 8.154200 -7.807300
C -7.588500 10.512300 -7.969900
C -7.013100 11.683200 -8.448900
H -8.641800 10.471700 -7.738200
H -7.617600 12.563900 -8.593900
H -5.179700 12.586400 -9.105500
N -5.526200 7.100500 -7.468300
H -3.803700 8.148000 -7.945000
C -9.270600 5.826000 -11.361400
C -9.362900 5.150000 -10.154400
C -8.780500 5.714300 -9.020300
H -9.877300 4.204100 -10.091100
N -8.132800 6.889900 -9.062300
C -8.812000 5.042700 -7.739600
C -8.038000 7.524500 -10.219500
C -8.590200 7.034500 -11.396400
H -7.504900 8.462800 -10.213900
H -8.491200 7.590000 -12.314800
H -9.716100 5.420100 -12.256200
N -8.200100 5.529200 -6.725100
H -9.331800 4.088400 -7.695600
&END COORD

! Atom Basis Set
! --------------
&KIND C
  BASIS_SET DZVP-MOLOPT-GTH
  POTENTIAL GTH-PBE-q4
&END KIND
&KIND H
  BASIS_SET DZVP-MOLOPT-GTH
  POTENTIAL GTH-PBE-q1
&END KIND
&KIND N
  BASIS_SET DZVP-MOLOPT-GTH
  POTENTIAL GTH-PBE-q5
&END KIND
&KIND O
  BASIS_SET DZVP-MOLOPT-GTH
  POTENTIAL GTH-PBE-q6
&END KIND
&KIND Zn
  BASIS_SET  DZVP-MOLOPT-SR-GTH
  POTENTIAL  GTH-PBE-q12
&END KIND
&END SUBSYS
&END FORCE_EVAL

! Geometry Optimization
! ---------------------
&MOTION
  &GEO_OPT
    OPTIMIZER BFGS
    MAX_ITER 2000
    MAX_DR  [bohr] 0.003
    &BFGS
    &END
  &END GEO_OPT
&END MOTION

