&GLOBAL
  PROJECT_NAME C_cl1_quad2_12_td_optc_opt
  RUN_TYPE GEO_OPT
  EXTENDED_FFT_LENGTHS
&END GLOBAL

! Force Evaluation
! ----------------
&FORCE_EVAL
  METHOD QS
  &DFT
    BASIS_SET_FILE_NAME BASIS_MOLOPT
    POTENTIAL_FILE_NAME GTH_POTENTIALS
    CHARGE 16
    &QS
      EPS_DEFAULT 1.0E-10
    &END QS
    &MGRID
      NGRIDS 5
     CUTOFF 700
     REL_CUTOFF 60
    &END MGRID
    &SCF
      SCF_GUESS ATOMIC
      EPS_SCF 5.0E-7
      MAX_SCF 300
      &OT
        PRECONDITIONER FULL_SINGLE_INVERSE
        MINIMIZER DIIS
      &END OT
      &OUTER_SCF ! Repeat the inner SCF cycle 10 times
        MAX_SCF 10
        EPS_SCF 5.0E-7 ! Must match the above
      &END
      &PRINT
        &RESTART ON
        FILENAME C_cl1_quad2_12_td_optc_opt.res
      &END
      &END
    &END SCF

    ! Exchange-Correlation
    ! -------------------
    &XC
      &VDW_POTENTIAL
        POTENTIAL_TYPE PAIR_POTENTIAL
        &PAIR_POTENTIAL
          TYPE DFTD3
          CALCULATE_C9_TERM .TRUE.
          PARAMETER_FILE_NAME dftd3.dat
          REFERENCE_FUNCTIONAL PBE
          R_CUTOFF 10.
          EPS_CN 0.01
        &END PAIR_POTENTIAL
      &END VDW_POTENTIAL
      &XC_FUNCTIONAL PBE
      &END XC_FUNCTIONAL
    &END XC
  &END DFT
  &PRINT
    &FORCES ON
    &END FORCES
  &END PRINT

&SUBSYS
! Cell
! ----
&CELL
  ABC 56.19 56.19 56.19
  ALPHA_BETA_GAMMA 90.0 90.0 90.0
  PERIODIC NONE
&END CELL

! Coordinates
! -----------
&COORD
C -4.708300 6.773400 7.881100
C -4.970200 5.737200 8.777600
C -4.185200 4.608300 8.764200
C -3.141900 4.468100 7.844100
C -2.518600 3.140000 7.725600
C -3.376400 2.067900 7.644900
C -2.886300 0.756700 7.568900
C -3.792000 -0.312600 7.507900
C -3.348700 -1.615200 7.490700
C -4.356800 -2.682400 7.520800
C -4.212500 -3.809700 8.330600
C -5.246900 -4.712300 8.478800
C -6.466900 -4.488900 7.840200
C -6.602400 -3.391800 6.985400
C -5.551900 -2.519100 6.813800
C -1.966500 -1.858600 7.522200
C -1.036100 -0.833400 7.571300
C 0.400500 -1.085900 7.626900
C 0.925300 -2.368100 7.658300
C 2.304200 -2.605500 7.753400
C 2.893500 -3.949500 7.813800
C 3.934600 -4.185000 8.716300
C 4.654000 -5.357400 8.677700
C 4.344900 -6.340800 7.736600
C 3.238600 -6.153600 6.902900
C 2.528500 -4.970000 6.936700
C 3.165500 -1.533600 7.770400
C 2.681400 -0.219200 7.708300
C 3.589300 0.849300 7.698700
C 3.146900 2.151300 7.685600
C 4.183300 3.195800 7.701100
C 5.269900 3.063000 6.833900
C 6.369400 3.882900 6.946000
C 6.393900 4.890900 7.910900
C 5.284900 5.078400 8.733600
C 4.194600 4.231600 8.632500
C 1.767800 2.403200 7.684800
C 0.833400 1.378400 7.662400
C -0.605300 1.630400 7.647400
C -1.136000 2.911100 7.701700
C -1.488200 0.515900 7.591300
C 1.284900 0.028600 7.662700
C -2.835500 5.539500 7.009100
C -3.603700 6.690900 7.033900
H -5.774500 5.842800 9.486900
H -4.385800 3.815400 9.467700
H -4.443800 2.224200 7.635300
H -4.846700 -0.088600 7.528700
H -3.301400 -3.958500 8.888600
H -5.148400 -5.553100 9.145800
H -7.522500 -3.261700 6.438300
H -5.655700 -1.691900 6.130600
H -1.645700 -2.886200 7.496200
H 0.275500 -3.226600 7.648800
H 4.176900 -3.438800 9.457500
H 5.436300 -5.541400 9.394200
H 2.994500 -6.913000 6.177600
H 1.713000 -4.813600 6.248300
H 4.232000 -1.687800 7.813600
H 4.645500 0.632800 7.739600
H 5.251900 2.296500 6.076000
H 7.208500 3.775600 6.277800
H 5.316600 5.837700 9.499400
H 3.368600 4.347800 9.317800
H 1.452400 3.433000 7.681700
H -0.490000 3.770400 7.768800
H -2.023600 5.453000 6.304500
H -3.413000 7.498300 6.344000
C 8.119400 4.560100 -6.504200
C 8.975900 4.845500 -5.440300
C 8.900000 4.106200 -4.283100
C 7.956800 3.083900 -4.141700
C 7.800400 2.478900 -2.809600
C 7.744000 3.334000 -1.733600
C 7.657000 2.839400 -0.424000
C 7.625000 3.739500 0.652100
C 7.630700 3.286500 1.950400
C 7.676800 4.299400 3.016900
C 8.623500 4.251700 4.038600
C 8.757900 5.302800 4.928200
C 7.952300 6.432900 4.801500
C 6.975800 6.470300 3.805500
C 6.832800 5.409000 2.939100
C 7.637900 1.904600 2.189300
C 7.621000 0.978100 1.158100
C 7.592300 -0.461700 1.400900
C 7.621700 -1.000700 2.678700
C 7.608300 -2.384900 2.901500
C 7.725200 -3.011500 4.228100
C 8.615100 -4.082800 4.354700
C 8.649300 -4.845200 5.498300
C 7.804800 -4.535600 6.564700
C 6.980200 -3.413200 6.486000
C 6.934200 -2.666600 5.321200
C 7.504900 -3.233500 1.824000
C 7.472200 -2.734300 0.514500
C 7.413500 -3.631900 -0.561600
C 7.488100 -3.183000 -1.859300
C 7.517600 -4.210400 -2.912400
C 6.614500 -5.273500 -2.842300
C 6.743200 -6.367400 -3.668100
C 7.764400 -6.411100 -4.618300
C 8.627000 -5.324000 -4.745600
C 8.506800 -4.239800 -3.893700
C 7.583000 -1.804500 -2.098100
C 7.588300 -0.877100 -1.066900
C 7.649000 0.561900 -1.308700
C 7.722700 1.097000 -2.585800
C 7.636600 1.439800 -0.188300
C 7.544600 -1.336800 0.279400
C 7.154800 2.757800 -5.233200
C 7.241200 3.480100 -6.410600
H 9.707800 5.629100 -5.547400
H 9.577000 4.322800 -3.471600
H 7.766100 4.402200 -1.883600
H 7.648400 4.797400 0.441100
H 9.293800 3.408500 4.111100
H 9.534000 5.287100 5.677200
H 6.323400 7.326600 3.744700
H 6.067200 5.438600 2.180600
H 7.638000 1.579900 3.216300
H 7.696900 -0.361000 3.542000
H 9.283500 -4.319300 3.541600
H 9.341900 -5.664800 5.594300
H 6.326300 -3.186800 7.314000
H 6.249000 -1.837300 5.244200
H 7.453800 -4.300800 1.973300
H 7.367800 -4.688600 -0.349400
H 5.814600 -5.242300 -2.120100
H 6.046900 -7.188300 -3.610100
H 9.434600 -5.369700 -5.459600
H 9.220300 -3.432500 -3.961700
H 7.636300 -1.482400 -3.124400
H 7.761900 0.453400 -3.448400
H 6.430300 1.963800 -5.145200
H 6.579000 3.272500 -7.237000
C 6.812400 7.721500 -4.482100
C 6.546700 8.725800 -3.546100
C 5.413100 8.657300 -2.758700
C 4.530600 7.585500 -2.880700
C 3.188000 7.606400 -2.276400
C 2.134700 7.471500 -3.149600
C 0.809500 7.553500 -2.701100
C -0.236400 7.494500 -3.633000
C -1.546800 7.604800 -3.230000
C -2.580100 7.611000 -4.274300
C -3.643200 8.513100 -4.262300
C -4.536800 8.567300 -5.315600
C -4.375000 7.731100 -6.420200
C -3.310000 6.827000 -6.439600
C -2.445400 6.755400 -5.371300
C -1.826100 7.738600 -1.860400
C -0.825300 7.766900 -0.901800
C -1.110700 7.869100 0.526800
C -2.402700 7.853600 1.028100
C -2.670400 7.987600 2.398600
C -4.025400 7.964900 2.968500
C -4.360300 8.897100 3.953900
C -5.538600 8.791600 4.658800
C -6.426600 7.749200 4.390000
C -6.139700 6.870100 3.342700
C -4.951100 6.972900 2.647400
C -1.618500 8.109000 3.275900
C -0.292400 8.068900 2.820700
C 0.757400 8.104300 3.750800
C 2.067300 8.056700 3.335900
C 3.111200 8.057500 4.371500
C 2.955300 7.216700 5.475000
C 3.828700 7.273500 6.537500
C 4.909600 8.155100 6.506100
C 5.100600 8.966300 5.389200
C 4.204400 8.920100 4.336400
C 2.346600 7.994000 1.963700
C 1.342200 7.936600 1.010500
C 1.628700 7.811700 -0.415300
C 2.923200 7.794700 -0.913900
C 0.534300 7.705800 -1.318100
C -0.016400 7.961900 1.432500
C 4.852000 6.541800 -3.753600
C 5.966800 6.612500 -4.557200
H 7.180600 9.598400 -3.498100
H 5.184200 9.469100 -2.085200
H 2.313500 7.346700 -4.205200
H 0.011900 7.417900 -4.679600
H -3.750700 9.206100 -3.441800
H -5.325100 9.302600 -5.323100
H -3.200600 6.158800 -7.278600
H -1.653500 6.024400 -5.380600
H -2.860300 7.813400 -1.569800
H -3.246600 7.763600 0.365200
H -3.688200 9.714800 4.165500
H -5.800200 9.532000 5.395500
H -6.827200 6.065600 3.136100
H -4.712400 6.254000 1.879800
H -1.795900 8.199600 4.336000
H 0.519900 8.187200 4.800100
H 2.135700 6.516800 5.496200
H 3.710200 6.617800 7.385000
H 5.911500 9.677300 5.383700
H 4.334100 9.590900 3.500600
H 3.382600 7.959100 1.671700
H 3.768300 7.906800 -0.255800
H 4.206400 5.680000 -3.809700
H 6.208800 5.816900 -5.243400
C -7.700500 4.525900 6.487000
C -8.668900 3.559100 6.199200
C -8.529500 2.745100 5.091300
C -7.418700 2.866400 4.257400
C -7.374600 2.233000 2.928900
C -7.157200 3.080600 1.867800
C -7.224800 2.617600 0.546700
C -7.121800 3.535000 -0.508900
C -7.244400 3.124700 -1.816600
C -7.252300 4.161800 -2.856300
C -8.147300 4.125300 -3.926300
C -8.259500 5.195400 -4.792300
C -7.499600 6.345700 -4.581400
C -6.567300 6.373600 -3.541700
C -6.429800 5.283200 -2.712800
C -7.431000 1.758600 -2.081100
C -7.509700 0.814000 -1.070300
C -7.693000 -0.608500 -1.342900
C -7.724600 -1.117800 -2.631300
C -7.932300 -2.481200 -2.887600
C -7.945700 -3.062600 -4.236200
C -8.885600 -4.052500 -4.537500
C -8.793500 -4.786600 -5.698100
C -7.762300 -4.539200 -6.605500
C -6.890700 -3.474400 -6.363600
C -6.975200 -2.754100 -5.188700
C -8.077600 -3.344100 -1.826400
C -7.993300 -2.882600 -0.504900
C -8.047700 -3.805000 0.550300
C -7.938600 -3.388100 1.856300
C -7.946500 -4.415900 2.905700
C -7.208900 -5.585500 2.704200
C -7.252800 -6.619000 3.611600
C -8.021500 -6.497600 4.772400
C -8.746400 -5.326000 4.990500
C -8.712000 -4.301200 4.064500
C -7.813900 -2.016500 2.125600
C -7.754800 -1.070100 1.115200
C -7.592800 0.355300 1.388800
C -7.603100 0.873000 2.676100
C -7.435900 1.240000 0.285400
C -7.817100 -1.499500 -0.240300
C -6.409500 3.769200 4.608500
C -6.552600 4.602300 5.694900
H -9.569600 3.507900 6.792400
H -9.316500 2.050100 4.841500
H -6.989800 4.132200 2.034300
H -7.010300 4.580100 -0.269200
H -8.795000 3.272800 -4.058100
H -8.982500 5.181000 -5.591700
H -5.934700 7.239300 -3.426600
H -5.679800 5.300200 -1.939000
H -7.509200 1.460300 -3.112900
H -7.614400 -0.465700 -3.481200
H -9.696200 -4.246300 -3.851800
H -9.534600 -5.532000 -5.931400
H -6.099900 -3.275400 -7.068500
H -6.256100 -1.976800 -4.983900
H -8.218200 -4.400500 -1.992400
H -8.192500 -4.848800 0.318900
H -6.588100 -5.675400 1.827600
H -6.660700 -7.507400 3.458700
H -9.383800 -5.257300 5.857100
H -9.315100 -3.420400 4.223600
H -7.728700 -1.720200 3.157300
H -7.776300 0.231500 3.523800
H -5.515500 3.825100 4.008400
H -5.785000 5.313000 5.956100
C -4.513900 -6.606400 -7.844200
C -3.570300 -6.347300 -8.843000
C -2.786200 -5.211400 -8.777900
C -2.920500 -4.319000 -7.716000
C -2.294900 -2.984500 -7.735600
C -3.148000 -1.907300 -7.704900
C -2.655200 -0.595500 -7.762100
C -3.554900 0.481000 -7.812700
C -3.095400 1.774300 -7.828600
C -4.108300 2.847500 -7.893100
C -4.355200 3.687400 -6.810400
C -5.406200 4.583500 -6.843700
C -6.240000 4.645300 -7.960600
C -5.970200 3.835200 -9.067200
C -4.914300 2.948900 -9.027600
C -1.716400 2.016300 -7.785800
C -0.790300 0.984000 -7.780600
C 0.649900 1.226700 -7.792200
C 1.189500 2.504300 -7.779600
C 2.572800 2.727400 -7.845800
C 3.195400 4.059600 -7.856200
C 4.231200 4.302100 -8.762700
C 4.990700 5.447400 -8.683000
C 4.726900 6.397100 -7.695200
C 3.633200 6.203800 -6.847600
C 2.883300 5.046200 -6.922200
C 3.422000 1.646600 -7.883500
C 2.924000 0.336900 -7.850900
C 3.822000 -0.739900 -7.837100
C 3.366100 -2.036800 -7.832000
C 4.380100 -3.101500 -7.811900
C 5.450800 -2.980400 -6.924000
C 6.512300 -3.854700 -6.972000
C 6.510600 -4.905200 -7.890200
C 5.424400 -5.064500 -8.748200
C 4.373900 -4.164600 -8.711900
C 1.984800 -2.274100 -7.849400
C 1.060600 -1.240700 -7.832400
C -0.378800 -1.482300 -7.807900
C -0.914600 -2.761100 -7.810900
C -1.255300 -0.361000 -7.780400
C 1.524500 0.104300 -7.825100
C -3.805100 -4.629300 -6.679900
C -4.603600 -5.749200 -6.745600
H -3.512100 -6.990400 -9.708300
H -2.102500 -4.990000 -9.583300
H -4.215700 -2.056000 -7.675600
H -4.615100 0.280500 -7.833300
H -3.739800 3.617100 -5.927900
H -5.630100 5.203300 -5.990900
H -6.569000 3.926000 -9.961200
H -4.712200 2.322800 -9.883400
H -1.393700 3.043600 -7.794700
H 0.549200 3.369700 -7.756200
H 4.439300 3.582300 -9.539600
H 5.768600 5.636700 -9.402900
H 3.430100 6.938100 -6.084700
H 2.078200 4.880200 -6.224300
H 4.490600 1.790100 -7.914500
H 4.880700 -0.533400 -7.860500
H 5.448900 -2.185400 -6.196000
H 7.336100 -3.760800 -6.283300
H 5.443100 -5.851600 -9.485600
H 3.564600 -4.266000 -9.419100
H 1.659600 -3.300700 -7.851300
H -0.275600 -3.627100 -7.848400
H -3.873300 -3.971500 -5.828200
H -5.296400 -5.986100 -5.954100
C 6.333700 -7.649500 4.543400
C 6.030900 -8.644900 3.609000
C 4.888300 -8.547100 2.839000
C 4.028900 -7.458800 2.981100
C 2.692200 -7.451400 2.360000
C 1.612400 -7.402600 3.208600
C 0.302200 -7.467800 2.710800
C -0.776900 -7.529700 3.606000
C -2.069000 -7.581500 3.143300
C -3.127800 -7.695000 4.168300
C -4.005700 -6.653700 4.457800
C -4.846200 -6.729000 5.552600
C -4.814700 -7.848100 6.386200
C -3.985900 -8.925500 6.059400
C -3.154500 -8.842600 4.963300
C -2.308000 -7.547600 1.763700
C -1.272200 -7.526000 0.840600
C -1.507600 -7.542900 -0.601500
C -2.782400 -7.581200 -1.147800
C -2.995100 -7.639100 -2.532600
C -4.318100 -7.772700 -3.165000
C -4.447700 -8.724600 -4.181300
C -5.579600 -8.781800 -4.960100
C -6.632500 -7.898600 -4.719600
C -6.554800 -7.010900 -3.646500
C -5.400300 -6.942100 -2.885200
C -1.910800 -7.598700 -3.378300
C -0.603900 -7.548900 -2.873400
C 0.479600 -7.545300 -3.765400
C 1.772700 -7.597700 -3.301500
C 2.855400 -7.672800 -4.293500
C 2.817000 -6.838900 -5.412300
C 3.721100 -6.990800 -6.440100
C 4.717400 -7.964200 -6.357200
C 4.795400 -8.769200 -5.222200
C 3.867700 -8.627000 -4.206200
C 1.998700 -7.615000 -1.917700
C 0.961200 -7.564500 -1.000600
C 1.196000 -7.534000 0.439200
C 2.472400 -7.534900 0.979600
C 0.071100 -7.503800 1.310800
C -0.381200 -7.545100 -1.471800
C 4.379500 -6.430600 3.859000
C 5.510400 -6.525500 4.639600
H 6.645600 -9.530300 3.547400
H 4.633300 -9.347000 2.160700
H 1.757000 -7.360600 4.276400
H -0.579800 -7.540500 4.667000
H -4.004400 -5.765900 3.846100
H -5.485500 -5.901800 5.815100
H -4.014800 -9.827700 6.651900
H -2.506500 -9.671800 4.722800
H -3.334100 -7.576500 1.437700
H -3.650900 -7.610000 -0.511400
H -3.645400 -9.422600 -4.362900
H -5.676400 -9.518800 -5.740200
H -7.372000 -6.327600 -3.474400
H -5.322600 -6.209400 -2.097700
H -2.052900 -7.609800 -4.447800
H 0.275900 -7.556300 -4.824800
H 2.063300 -6.070600 -5.474100
H 3.692500 -6.342800 -7.301200
H 5.540000 -9.548000 -5.175800
H 3.905500 -9.294200 -3.358500
H 3.022300 -7.650400 -1.585000
H 3.340700 -7.577100 0.344100
H 3.746200 -5.561400 3.936600
H 5.782100 -5.737000 5.323200
Zn 7.842100 7.749600 7.736800
C 12.257900 5.955500 8.732500
C 11.105900 5.189400 8.634800
C 9.901200 5.822400 8.334400
H 11.138700 4.122900 8.792400
N 9.822600 7.147400 8.133000
C 8.661200 5.081600 8.221200
C 10.925500 7.873100 8.224100
C 12.166600 7.323500 8.521600
H 10.821500 8.934000 8.054500
H 13.037500 7.955500 8.585100
H 13.206700 5.498300 8.966000
N 7.543000 5.681900 8.064200
H 8.721200 3.997400 8.295700
C 6.448900 8.822600 12.285100
C 5.593400 8.783600 11.194200
C 6.115000 8.464200 9.942000
H 4.543500 9.001600 11.310300
N 7.416000 8.187300 9.760200
C 5.278000 8.418200 8.760400
C 8.227100 8.224000 10.805200
C 7.791800 8.537100 12.087100
H 9.265900 7.996600 10.619600
H 8.491100 8.555200 12.907100
H 6.078700 9.069000 13.268000
N 5.783200 8.232800 7.600700
H 4.209600 8.572000 8.901100
C 9.072300 12.187500 6.160000
C 8.889000 11.089100 5.333200
C 8.540100 9.867400 5.905900
H 9.018800 11.176200 4.266000
N 8.371400 9.723300 7.229900
C 8.348900 8.677000 5.101400
C 8.547300 10.774600 8.014100
C 8.897900 12.027800 7.526800
H 8.404800 10.617300 9.072500
H 9.030000 12.854800 8.205300
H 9.344200 13.147600 5.750100
N 8.145700 7.538300 5.645500
H 8.415500 8.790200 4.020800
Zn 7.333400 -7.494000 7.555000
C 5.870700 -12.146900 7.179900
C 5.012300 -11.059100 7.158400
C 5.532600 -9.784900 7.379400
H 3.957900 -11.192800 6.976600
N 6.841500 -9.576600 7.597400
C 4.680300 -8.618400 7.435600
C 7.651400 -10.622900 7.642400
C 7.215300 -11.925800 7.440200
H 8.690500 -10.422400 7.853900
H 7.916100 -12.743400 7.488600
H 5.502300 -13.146300 7.009000
N 5.176600 -7.457800 7.646700
H 3.609000 -8.784000 7.350300
C 8.097200 -6.507500 12.266100
C 8.150100 -5.549400 11.263600
C 7.882400 -5.935400 9.952600
H 8.398100 -4.525100 11.492900
N 7.572200 -7.203600 9.632600
C 7.927400 -4.993600 8.848300
C 7.515800 -8.111800 10.592400
C 7.771300 -7.812000 11.925500
H 7.256300 -9.115100 10.290800
H 7.714600 -8.584100 12.675400
H 8.303400 -6.242900 13.291400
N 7.776700 -5.412700 7.652700
H 8.114300 -3.947400 9.080500
C 11.911800 -8.861600 6.486700
C 10.881000 -8.813200 5.560900
C 9.625800 -8.368100 5.972700
H 11.045300 -9.113400 4.538200
N 9.384400 -7.987100 7.238300
C 8.518100 -8.262600 5.048600
C 10.374100 -8.030600 8.115400
C 11.654800 -8.458400 7.789000
H 10.143200 -7.715700 9.121400
H 12.428200 -8.477200 8.539500
H 12.894200 -9.204000 6.201200
N 7.408200 -7.748000 5.425200
H 8.689400 -8.593000 4.027400
Zn -7.647400 -7.442300 7.803600
C -12.153000 -6.068300 9.034900
C -11.084900 -5.196200 8.887000
C -9.846200 -5.709600 8.506500
H -11.207900 -4.139900 9.066700
N -9.657100 -7.020000 8.278000
C -8.688600 -4.857400 8.330400
C -10.680200 -7.846500 8.417800
C -11.948000 -7.418800 8.793000
H -10.488900 -8.890600 8.222900
H -12.752100 -8.129600 8.892500
H -13.125000 -5.705100 9.330100
N -7.541600 -5.356900 8.057800
H -8.833700 -3.786000 8.453500
C -5.994500 -8.580300 12.243000
C -5.246500 -8.677800 11.079600
C -5.819000 -8.271400 9.875300
H -4.239100 -9.062200 11.103400
N -7.070600 -7.788800 9.808600
C -5.078800 -8.309700 8.632700
C -7.776200 -7.689700 10.923500
C -7.282800 -8.071500 12.164900
H -8.775700 -7.293700 10.829100
H -7.896800 -7.975300 13.045500
H -5.583300 -8.891400 13.190600
N -5.583000 -7.839000 7.553400
H -4.064900 -8.701300 8.673100
C -8.410900 -12.168600 6.748000
C -8.378300 -11.150500 5.808200
C -8.169400 -9.841200 6.239400
H -8.518400 -11.364000 4.760400
N -7.989600 -9.535700 7.534100
C -8.163100 -8.734600 5.309600
C -8.029100 -10.512500 8.426700
C -8.236200 -11.842500 8.085100
H -7.898400 -10.230700 9.460000
H -8.261900 -12.600400 8.851200
H -8.572800 -13.192400 6.448900
N -8.053400 -7.526600 5.718200
H -8.294000 -8.975100 4.256900
Zn -7.682900 7.595500 7.346800
C -6.956400 12.382300 7.941300
C -5.948400 11.433400 8.042300
C -6.262700 10.095400 7.818800
H -4.940800 11.724500 8.294200
N -7.508400 9.698700 7.505300
C -5.266200 9.042800 7.914300
C -8.463800 10.607300 7.402500
C -8.236800 11.962600 7.612400
H -9.446400 10.244500 7.141900
H -9.045500 12.669000 7.518600
H -6.747400 13.426700 8.112600
N -5.627100 7.824200 7.811600
H -4.233800 9.333800 8.095300
C -9.078700 6.673900 11.948100
C -8.975400 5.705900 10.961200
C -8.531200 6.080100 9.693800
H -9.231400 4.678900 11.168600
N -8.202700 7.349200 9.399200
C -8.370100 5.112200 8.631700
C -8.297200 8.266700 10.347900
C -8.728900 7.979900 11.636700
H -8.021700 9.274000 10.076700
H -8.791700 8.763200 12.374400
H -9.422100 6.418300 12.938300
N -7.846900 5.455700 7.514900
H -8.668400 4.088500 8.842800
C -12.239900 6.889300 5.730000
C -11.120700 6.906200 4.912400
C -9.882600 7.217300 5.471500
H -11.203800 6.685000 3.860300
N -9.737900 7.488600 6.779200
C -8.688000 7.314600 4.662000
C -10.814100 7.492900 7.549800
C -12.085400 7.199600 7.073200
H -10.665100 7.744100 8.588800
H -12.930000 7.218300 7.742700
H -13.213200 6.649600 5.331300
N -7.562500 7.612800 5.192600
H -8.805400 7.183400 3.588700
Zn 7.743200 7.515400 -7.511800
C 8.454500 6.484500 -12.221700
C 8.484400 5.530400 -11.214300
C 8.230800 5.930300 -9.904600
H 8.704600 4.498700 -11.438700
N 7.955900 7.208400 -9.590800
C 8.250600 4.993700 -8.794900
C 7.921200 8.112800 -10.555200
C 8.164400 7.799000 -11.887400
H 7.689500 9.124300 -10.258000
H 8.125900 8.568300 -12.641400
H 8.650300 6.208700 -13.246200
N 8.124300 5.426100 -7.601300
H 8.397400 3.939900 -9.021600
C 12.382000 8.763000 -6.542000
C 11.368000 8.752100 -5.596800
C 10.091400 8.346100 -5.982500
H 11.561300 9.050600 -4.578600
N 9.813500 7.966200 -7.241000
C 8.999700 8.280300 -5.036400
C 10.787300 7.974800 -8.136700
C 12.086800 8.363700 -7.837400
H 10.528000 7.663900 -9.136900
H 12.845300 8.355700 -8.603100
H 13.380500 9.073500 -6.276700
N 7.870200 7.789700 -5.385900
H 9.198900 8.616800 -4.022300
C 6.333200 12.175700 -7.103500
C 5.463400 11.097000 -7.072100
C 5.967100 9.818500 -7.305000
H 4.413300 11.242000 -6.874400
N 7.270400 9.597500 -7.543300
C 5.101600 8.661100 -7.358900
C 8.091200 10.634500 -7.595200
C 7.671600 11.941500 -7.383000
H 9.125400 10.423100 -7.820400
H 8.380100 12.751900 -7.439100
H 5.977800 13.178600 -6.925300
N 5.581900 7.497100 -7.585700
H 4.032800 8.838100 -7.263000
Zn 7.718200 -7.842400 -7.499200
C 8.558400 -12.279000 -5.683900
C 8.424300 -11.132600 -4.914900
C 8.183400 -9.918100 -5.554700
H 8.508500 -11.177100 -3.840600
N 8.072800 -9.825300 -6.889500
C 8.041500 -8.682500 -4.811200
C 8.200800 -10.922400 -7.618500
C 8.444700 -12.172200 -7.062400
H 8.106200 -10.806100 -8.687600
H 8.541200 -13.037800 -7.697500
H 8.746900 -13.235300 -5.221600
N 7.937100 -7.557400 -5.410100
H 8.051100 -8.751600 -3.725000
C 12.307100 -6.451400 -8.366200
C 11.217500 -5.593200 -8.363000
C 9.953300 -6.113100 -8.092000
H 11.343700 -4.542700 -8.571900
N 9.758500 -7.415200 -7.828700
C 8.772800 -5.273500 -8.080700
C 10.802500 -8.228500 -7.828800
C 12.096000 -7.794800 -8.092600
H 10.606200 -9.267500 -7.611700
H 12.914800 -8.495700 -8.082400
H 13.299000 -6.082800 -8.575800
N 7.605700 -5.779300 -7.951500
H 8.921200 -4.202600 -8.206800
C 6.395100 -8.996600 -12.044300
C 5.507600 -8.830300 -10.991600
C 6.010500 -8.505100 -9.733200
H 4.446800 -8.954900 -11.141500
N 7.324400 -8.342700 -9.510400
C 5.139100 -8.332700 -8.588300
C 8.166500 -8.502300 -10.518700
C 7.750900 -8.829400 -11.803600
H 9.214800 -8.365700 -10.299900
H 8.474800 -8.948800 -12.593200
H 6.039900 -9.250200 -13.030800
N 5.617700 -8.148600 -7.417300
H 4.066800 -8.395700 -8.764300
Zn -7.547500 -7.545900 -7.710000
C -6.948100 -6.154400 -12.356500
C -6.962500 -5.279900 -11.281200
C -7.247900 -5.778100 -10.011300
H -6.759200 -4.230400 -11.422000
N -7.495700 -7.080500 -9.794900
C -7.343700 -4.909000 -8.859200
C -7.504200 -7.905800 -10.829800
C -7.236600 -7.491900 -12.128300
H -7.737300 -8.939300 -10.623200
H -7.257200 -8.204100 -12.937200
H -6.727400 -5.803300 -13.352400
N -7.625600 -5.387200 -7.706600
H -7.228100 -3.841400 -9.031500
C -12.289200 -8.213100 -6.820100
C -11.312800 -8.233300 -5.834000
C -9.988900 -7.998200 -6.196600
H -11.572100 -8.431400 -4.806000
N -9.632400 -7.751600 -7.469200
C -8.909500 -8.009400 -5.224700
C -10.567100 -7.725900 -8.404400
C -11.910900 -7.950700 -8.128600
H -10.235600 -7.516600 -9.410200
H -12.639700 -7.920300 -8.922100
H -13.323700 -8.394800 -6.573600
N -7.702100 -7.897200 -5.620300
H -9.170800 -8.140000 -4.176800
C -6.532600 -12.191200 -8.886900
C -5.588900 -11.176200 -8.852000
C -5.988800 -9.897200 -8.468000
H -4.561400 -11.370500 -9.115800
N -7.259400 -9.617800 -8.131700
C -5.047000 -8.802800 -8.383600
C -8.153500 -10.592800 -8.161500
C -7.840300 -11.894700 -8.531400
H -9.163100 -10.332900 -7.883500
H -8.605300 -12.653900 -8.542600
H -6.256800 -13.191200 -9.183100
N -5.412600 -7.669200 -7.915300
H -4.023600 -9.001900 -8.691200
Zn -7.397700 7.581400 -7.489600
C -6.102000 8.020800 -12.178700
C -5.205500 7.919400 -11.126300
C -5.699400 7.856700 -9.824400
H -4.143100 7.894500 -11.309200
N -7.015300 7.878600 -9.558800
C -4.815000 7.796300 -8.682200
C -7.865300 7.989100 -10.567500
C -7.458900 8.064000 -11.893300
H -8.914300 8.024200 -10.315700
H -8.191000 8.154900 -12.679300
H -5.754300 8.071400 -13.198700
N -5.276700 7.797200 -7.488500
H -3.746100 7.795900 -8.884800
C -8.293700 12.135200 -6.043600
C -8.215300 11.047100 -5.186600
C -7.923500 9.793200 -5.719600
H -8.381700 11.167100 -4.127800
N -7.712600 9.608700 -7.033800
C -7.822800 8.610500 -4.888200
C -7.782200 10.650500 -7.845700
C -8.070000 11.934400 -7.397800
H -7.601400 10.459800 -8.892500
H -8.116300 12.753900 -8.096500
H -8.521300 13.119500 -5.665200
N -7.658400 7.456800 -5.416500
H -7.905300 8.743900 -3.811500
C -11.968200 6.355500 -8.676000
C -10.879700 5.501900 -8.773000
C -9.628300 5.957600 -8.361500
H -10.997100 4.502300 -9.160600
N -9.444900 7.195800 -7.874900
C -8.459800 5.105800 -8.406100
C -10.488900 8.002800 -7.778000
C -11.770300 7.629500 -8.164200
H -10.303400 8.988600 -7.380300
H -12.589200 8.323800 -8.069200
H -12.949300 6.035300 -8.990300
N -7.341800 5.503700 -7.925900
H -8.589400 4.107500 -8.817600
&END COORD

! Atom Basis Set
! --------------
&KIND C
  BASIS_SET DZVP-MOLOPT-GTH
  POTENTIAL GTH-PBE-q4
&END KIND
&KIND H
  BASIS_SET DZVP-MOLOPT-GTH
  POTENTIAL GTH-PBE-q1
&END KIND
&KIND N
  BASIS_SET DZVP-MOLOPT-GTH
  POTENTIAL GTH-PBE-q5
&END KIND
&KIND O
  BASIS_SET DZVP-MOLOPT-GTH
  POTENTIAL GTH-PBE-q6
&END KIND
&KIND Zn
  BASIS_SET  DZVP-MOLOPT-SR-GTH
  POTENTIAL  GTH-PBE-q12
&END KIND
&END SUBSYS
&END FORCE_EVAL

! Geometry Optimization
! ---------------------
&MOTION
  &GEO_OPT
    OPTIMIZER BFGS
    MAX_ITER 2000
    MAX_DR  [bohr] 0.003
    &BFGS
    &END
  &END GEO_OPT
&END MOTION

