&GLOBAL
  PROJECT_NAME C_cl1_quad2_12_c2v_optc_opt
  RUN_TYPE GEO_OPT
  EXTENDED_FFT_LENGTHS
&END GLOBAL

! Force Evaluation
! ----------------
&FORCE_EVAL
  METHOD QS
  &DFT
    BASIS_SET_FILE_NAME BASIS_MOLOPT
    POTENTIAL_FILE_NAME GTH_POTENTIALS
    CHARGE 16
    &QS
      EPS_DEFAULT 1.0E-10
    &END QS
    &MGRID
      NGRIDS 5
     CUTOFF 700
     REL_CUTOFF 60
    &END MGRID
    &SCF
      SCF_GUESS ATOMIC
      EPS_SCF 5.0E-7
      MAX_SCF 300
      &OT
        PRECONDITIONER FULL_SINGLE_INVERSE
        MINIMIZER DIIS
      &END OT
      &OUTER_SCF ! Repeat the inner SCF cycle 10 times
        MAX_SCF 10
        EPS_SCF 5.0E-7 ! Must match the above
      &END
      &PRINT
        &RESTART ON
        FILENAME C_cl1_quad2_12_c2v_optc_opt.res
      &END
      &END
    &END SCF

    ! Exchange-Correlation
    ! -------------------
    &XC
      &VDW_POTENTIAL
        POTENTIAL_TYPE PAIR_POTENTIAL
        &PAIR_POTENTIAL
          TYPE DFTD3
          CALCULATE_C9_TERM .TRUE.
          PARAMETER_FILE_NAME dftd3.dat
          REFERENCE_FUNCTIONAL PBE
          R_CUTOFF 10.
          EPS_CN 0.01
        &END PAIR_POTENTIAL
      &END VDW_POTENTIAL
      &XC_FUNCTIONAL PBE
      &END XC_FUNCTIONAL
    &END XC
  &END DFT
  &PRINT
    &FORCES ON
    &END FORCES
  &END PRINT

&SUBSYS
! Cell
! ----
&CELL
  ABC 56.29 56.29 56.29
  ALPHA_BETA_GAMMA 90.0 90.0 90.0
  PERIODIC NONE
&END CELL

! Coordinates
! -----------
&COORD
C -6.315400 5.601600 7.984300
C -5.100600 5.771800 8.648000
C -4.122000 4.795000 8.577800
C -4.320100 3.641600 7.820900
C -3.425700 2.476100 7.879800
C -4.051500 1.258300 8.018300
C -3.310800 0.078400 8.155300
C -3.987000 -1.127400 8.374000
C -3.298200 -2.296300 8.615700
C -4.108300 -3.480200 8.916700
C -3.833300 -4.761300 8.433600
C -4.774300 -5.766800 8.537300
C -6.022800 -5.521200 9.119300
C -6.248400 -4.274200 9.716800
C -5.300300 -3.285600 9.626500
C -1.896800 -2.280100 8.520000
C -1.193000 -1.117800 8.242500
C 0.257100 -1.097100 8.086900
C 1.004800 -2.259200 8.039200
C 2.405400 -2.244500 7.941600
C 3.160500 -3.505100 7.954600
C 4.325600 -3.615300 8.716100
C 5.045300 -4.791200 8.747000
C 4.613600 -5.903700 8.023400
C 3.445200 -5.800900 7.260800
C 2.736800 -4.618000 7.225800
C 3.055200 -1.033800 7.872400
C 2.333800 0.173900 7.888600
C 3.020600 1.399300 7.861900
C 2.341400 2.594700 7.938600
C 3.102300 3.850100 8.032900
C 4.254300 3.876900 8.823900
C 5.019100 5.016800 8.931500
C 4.632000 6.182900 8.271600
C 3.472400 6.176100 7.494400
C 2.727900 5.018000 7.367700
C 0.936900 2.577900 7.965300
C 0.213600 1.396900 7.971800
C -1.248300 1.371700 7.978900
C -2.022000 2.519500 7.868100
C -1.895400 0.112400 8.116900
C 0.916100 0.158700 7.979100
C -5.512800 3.517800 7.100500
C -6.509600 4.458900 7.205400
H -4.963600 6.631800 9.283400
H -3.218400 4.910600 9.156300
H -5.125900 1.195500 8.087000
H -5.064900 -1.117500 8.351500
H -2.896800 -4.955800 7.935200
H -4.569700 -6.760700 8.168000
H -7.194500 -4.051100 10.183400
H -5.495900 -2.335000 10.096800
H -1.372400 -3.201400 8.710600
H 0.521200 -3.218400 8.112500
H 4.652800 -2.780300 9.315900
H 5.913100 -4.880000 9.378700
H 3.130800 -6.640400 6.661200
H 1.853900 -4.543400 6.611200
H 4.130200 -0.991400 7.792900
H 4.096600 1.387400 7.785000
H 4.539500 3.000700 9.384300
H 5.886000 5.035600 9.570300
H 3.196400 7.070400 6.957500
H 1.857100 5.014800 6.731600
H 0.428800 3.525800 8.021800
H -1.553700 3.482700 7.753500
H -5.663000 2.660000 6.465600
H -7.435400 4.338600 6.666800
C 8.513100 4.782700 -6.010200
C 9.620600 4.175500 -5.411300
C 9.504300 3.625700 -4.151800
C 8.291300 3.668000 -3.463600
C 8.178700 2.989600 -2.156800
C 7.957800 3.654400 -0.975800
C 7.952400 2.949100 0.245900
C 7.847500 3.633800 1.473300
C 7.961100 2.951000 2.660700
C 7.959300 3.634400 3.968000
C 9.077400 3.523700 4.795800
C 9.104100 4.133900 6.032200
C 7.998600 4.869200 6.470200
C 6.877400 4.983300 5.646200
C 6.860100 4.368500 4.410200
C 8.113900 1.557600 2.650200
C 8.133900 0.831800 1.475500
C 8.211200 -0.625400 1.464300
C 8.204100 -1.365800 2.629200
C 8.236400 -2.769200 2.627300
C 8.214700 -3.473200 3.917100
C 8.997400 -4.608200 4.132100
C 8.987300 -5.255300 5.350300
C 8.209800 -4.761200 6.396500
C 7.434100 -3.618600 6.198900
C 7.425100 -2.998900 4.966700
C 8.281400 -3.439300 1.425100
C 8.282700 -2.731500 0.207100
C 8.298400 -3.417100 -1.024900
C 8.244500 -2.723800 -2.212700
C 8.206700 -3.383100 -3.525600
C 9.056400 -4.442200 -3.843500
C 9.036700 -5.012800 -5.101600
C 8.168400 -4.533000 -6.083000
C 7.316700 -3.469300 -5.769200
C 7.329900 -2.916100 -4.508100
C 8.214300 -1.320600 -2.188000
C 8.241300 -0.604700 -1.009200
C 8.212200 0.852100 -0.996200
C 8.311800 1.594500 -2.155500
C 8.086900 1.533900 0.242100
C 8.248500 -1.310000 0.221600
C 7.196100 4.290700 -4.057800
C 7.304200 4.849600 -5.315900
H 10.574800 4.173600 -5.916500
H 10.363900 3.162700 -3.691100
H 7.846500 4.727300 -0.962100
H 7.736100 4.706800 1.467000
H 9.940200 2.970400 4.456400
H 9.996200 4.086300 6.638400
H 6.018800 5.526600 6.008100
H 5.984300 4.443500 3.786100
H 8.203100 1.068700 3.605500
H 8.194500 -0.873200 3.586000
H 9.640200 -4.973800 3.346700
H 9.618500 -6.112300 5.520300
H 6.806000 -3.264700 7.001600
H 6.783900 -2.146200 4.811100
H 8.287400 -4.518300 1.400200
H 8.318800 -4.496200 -1.018900
H 9.761700 -4.801600 -3.109800
H 9.736200 -5.793400 -5.350800
H 6.614400 -3.121200 -6.509400
H 6.643400 -2.119300 -4.269500
H 8.191500 -0.809400 -3.135000
H 8.488100 1.118200 -3.105200
H 6.252200 4.319000 -3.537500
H 6.451900 5.302500 -5.796700
C 6.683200 8.117400 -5.134000
C 6.566100 7.516100 -3.879500
C 5.377000 7.587800 -3.186300
C 4.289800 8.304100 -3.691700
C 3.017300 8.364800 -2.965600
C 1.818300 8.443000 -3.635500
C 0.602000 8.488500 -2.932400
C -0.600200 8.622900 -3.638700
C -1.810700 8.663700 -2.982300
C -2.982300 8.807100 -3.859700
C -4.071700 7.936400 -3.847000
C -4.964800 7.920500 -4.901300
C -4.775100 8.754600 -6.007900
C -3.793200 9.752500 -5.930900
C -2.917700 9.772600 -4.871700
C -1.840700 8.528300 -1.585800
C -0.676600 8.411900 -0.838600
C -0.678800 8.284000 0.620800
C -1.846700 8.197700 1.368000
C -1.824000 8.072200 2.765900
C -2.986000 8.032900 3.668800
C -2.911200 7.175000 4.773100
C -3.715800 7.365500 5.871000
C -4.671900 8.384100 5.861700
C -4.888300 9.110900 4.691800
C -4.035000 8.949100 3.613300
C -0.609100 8.059700 3.415800
C 0.594700 8.158900 2.709900
C 1.807800 8.173900 3.416100
C 3.006500 8.281900 2.752000
C 4.257200 8.303800 3.516400
C 4.310800 8.997100 4.727900
C 5.428300 8.932300 5.528200
C 6.538500 8.186900 5.128800
C 6.523000 7.557700 3.881100
C 5.390200 7.607100 3.095400
C 2.996300 8.348500 1.351600
C 1.822700 8.325800 0.619600
C 1.822000 8.363500 -0.834600
C 2.996000 8.338900 -1.562400
C 0.576900 8.417600 -1.515300
C 0.575500 8.253400 1.295300
C 4.440300 8.955900 -4.918500
C 5.608800 8.848800 -5.640300
H 7.392400 6.944700 -3.488500
H 5.283600 7.061500 -2.250600
H 1.782800 8.457500 -4.713100
H -0.565600 8.685400 -4.715400
H -4.184000 7.230700 -3.039300
H -5.787300 7.222900 -4.908300
H -3.729100 10.515000 -6.691800
H -2.154900 10.535200 -4.830400
H -2.803300 8.553500 -1.102400
H -2.808300 8.210000 0.882100
H -2.180400 6.382600 4.782700
H -3.625700 6.735600 6.741800
H -5.656700 9.867600 4.675100
H -4.143500 9.593200 2.754400
H -0.567500 8.016800 4.492500
H 1.778800 8.084200 4.490100
H 3.473300 9.603900 5.034900
H 5.475500 9.493800 6.445700
H 7.376300 6.976800 3.569400
H 5.367300 7.070800 2.160500
H 3.946200 8.458200 0.857400
H 3.943800 8.325900 -1.053900
H 3.642200 9.570800 -5.303500
H 5.723700 9.377900 -6.571700
C -8.443600 7.027900 5.010000
C -9.718200 6.653500 4.575500
C -9.888100 5.477600 3.875400
C -8.797700 4.656200 3.583200
C -8.915800 3.581400 2.583100
C -9.373500 3.972300 1.346500
C -9.206700 3.138100 0.230000
C -9.412900 3.662600 -1.051700
C -8.994800 2.977400 -2.172600
C -8.954600 3.800800 -3.390500
C -7.784600 3.951400 -4.137700
C -7.609900 5.049300 -4.958300
C -8.591000 6.042300 -5.022200
C -9.841400 5.783900 -4.443300
C -10.018800 4.672400 -3.654100
C -8.492300 1.674800 -2.024100
C -8.394300 1.065400 -0.780500
C -7.915900 -0.304900 -0.603300
C -7.740400 -1.179200 -1.665800
C -7.281400 -2.495200 -1.481800
C -7.246400 -3.532400 -2.524500
C -6.256000 -4.519800 -2.474400
C -6.376700 -5.685000 -3.196100
C -7.465200 -5.875000 -4.051700
C -8.387000 -4.839300 -4.209200
C -8.286200 -3.692800 -3.441200
C -6.972500 -2.917800 -0.207100
C -7.225800 -2.101200 0.903200
C -7.137600 -2.650300 2.191400
C -7.649100 -1.977700 3.279800
C -7.848800 -2.874800 4.441200
C -6.777000 -3.439700 5.133300
C -6.929300 -4.638700 5.801500
C -8.136500 -5.335700 5.717900
C -9.261800 -4.667000 5.216800
C -9.117700 -3.437700 4.610200
C -8.076300 -0.654700 3.121600
C -8.040900 -0.027700 1.882000
C -8.427800 1.364800 1.704400
C -8.466000 2.264500 2.758100
C -8.692700 1.827100 0.385500
C -7.710900 -0.782400 0.723800
C -7.541400 5.002000 4.081300
C -7.363700 6.171600 4.793300
H -10.570300 7.276600 4.804500
H -10.874200 5.200200 3.533800
H -9.755900 4.970700 1.196600
H -9.796300 4.667900 -1.136300
H -6.977400 3.247700 -4.011200
H -6.679300 5.188100 -5.483200
H -10.664100 6.462000 -4.614300
H -10.980000 4.498300 -3.193900
H -8.178600 1.152900 -2.913200
H -7.972200 -0.860900 -2.668900
H -5.397400 -4.380000 -1.837600
H -5.626000 -6.454500 -3.119800
H -9.233700 -4.980600 -4.861500
H -9.059600 -2.943600 -3.514200
H -6.642700 -3.928000 -0.026700
H -6.776200 -3.660900 2.302500
H -5.807800 -2.968800 5.092100
H -6.097700 -5.109100 6.296700
H -10.237900 -5.124100 5.283200
H -9.980300 -2.955000 4.175900
H -8.465700 -0.131100 3.980100
H -8.144100 1.959900 3.740800
H -6.693400 4.371500 3.867000
H -6.384600 6.471800 5.131000
C -6.399300 -4.907900 -7.483600
C -5.305500 -5.370100 -8.216300
C -4.181700 -4.575500 -8.368000
C -4.124300 -3.317300 -7.776200
C -3.119700 -2.280600 -8.075700
C -3.658500 -1.092500 -8.515000
C -2.870700 0.059200 -8.626100
C -3.487300 1.284700 -8.904500
C -2.797800 2.467000 -8.756900
C -3.651600 3.662700 -8.805600
C -4.597700 3.776000 -9.830400
C -5.695400 4.592700 -9.691000
C -5.873200 5.331400 -8.513000
C -4.827000 5.377300 -7.587800
C -3.734000 4.545500 -7.728000
C -1.435700 2.425600 -8.425700
C -0.758200 1.225200 -8.262400
C 0.669500 1.157400 -7.963200
C 1.465600 2.287700 -7.921100
C 2.847400 2.225400 -7.676700
C 3.661200 3.447700 -7.759000
C 4.906900 3.404500 -8.390700
C 5.665100 4.544200 -8.548900
C 5.182300 5.774500 -8.100900
C 3.948200 5.827000 -7.448200
C 3.208500 4.674800 -7.270000
C 3.428700 0.998200 -7.447300
C 2.668200 -0.183400 -7.513900
C 3.300300 -1.436900 -7.405800
C 2.604100 -2.598600 -7.647900
C 3.346500 -3.869300 -7.747900
C 4.175200 -4.313400 -6.716600
C 4.988600 -5.415800 -6.886800
C 4.988000 -6.107000 -8.099700
C 4.120700 -5.697800 -9.118300
C 3.311400 -4.594700 -8.939400
C 1.221600 -2.534900 -7.877100
C 0.538600 -1.331300 -7.880900
C -0.908400 -1.263000 -8.051200
C -1.732300 -2.369900 -7.894600
C -1.487400 0.005500 -8.328100
C 1.272800 -0.117500 -7.773700
C -5.180000 -2.914100 -6.950800
C -6.310200 -3.684000 -6.814600
H -5.375300 -6.317700 -8.725800
H -3.371700 -4.915200 -8.994700
H -4.713500 -1.018400 -8.730200
H -4.540400 1.291000 -9.139500
H -4.485900 3.185400 -10.727200
H -6.419500 4.664000 -10.488600
H -4.916800 6.007700 -6.718800
H -2.978000 4.521400 -6.959500
H -0.922900 3.366400 -8.315500
H 1.041700 3.254800 -8.132100
H 5.269000 2.473700 -8.797000
H 6.603700 4.509300 -9.076500
H 3.602400 6.768400 -7.050500
H 2.271700 4.725900 -6.738200
H 4.483600 0.924400 -7.234200
H 4.361400 -1.468400 -7.213600
H 4.176000 -3.788200 -5.774800
H 5.617600 -5.772400 -6.086200
H 4.135900 -6.202700 -10.072700
H 2.675700 -4.266200 -9.747700
H 0.696200 -3.459200 -8.055100
H -1.320100 -3.315000 -7.580300
H -5.113600 -1.969000 -6.435900
H -7.120400 -3.367700 -6.176800
C 6.386900 -7.908300 5.016800
C 6.018000 -8.967500 4.181200
C 4.918500 -8.844600 3.358500
C 4.158400 -7.674100 3.352800
C 2.938400 -7.602200 2.535800
C 1.734500 -7.275500 3.112800
C 0.541700 -7.381800 2.373800
C -0.697800 -7.255400 3.019700
C -1.869800 -7.547800 2.356500
C -3.070400 -7.664700 3.200500
C -3.800100 -8.853300 3.232300
C -4.650500 -9.124300 4.285900
C -4.830400 -8.185500 5.305700
C -4.241300 -6.927500 5.178700
C -3.357500 -6.682100 4.149400
C -1.830600 -7.846900 0.987400
C -0.637700 -7.875800 0.281900
C -0.580500 -8.128500 -1.156200
C -1.716300 -8.172600 -1.948200
C -1.645700 -8.452700 -3.319200
C -2.836500 -8.478800 -4.189800
C -3.214200 -9.658600 -4.828700
C -4.237800 -9.660700 -5.753400
C -4.903700 -8.470000 -6.056600
C -4.554300 -7.294000 -5.392000
C -3.525900 -7.301200 -4.471500
C -0.425600 -8.657400 -3.915000
C 0.759700 -8.531800 -3.171600
C 2.004900 -8.605200 -3.818400
C 3.175100 -8.427300 -3.116700
C 4.465200 -8.395200 -3.814500
C 4.684200 -9.192400 -4.939700
C 5.850500 -9.087900 -5.665500
C 6.849600 -8.210400 -5.250600
C 6.672100 -7.455200 -4.093500
C 5.480600 -7.531900 -3.401200
C 3.106700 -8.225200 -1.729900
C 1.905500 -8.166500 -1.050600
C 1.847700 -7.923200 0.383400
C 2.982000 -7.926500 1.173200
C 0.582900 -7.710100 0.993400
C 0.690100 -8.282400 -1.775800
C 4.542100 -6.613600 4.173500
C 5.640800 -6.727600 4.997900
H 6.555600 -9.902800 4.223300
H 4.623200 -9.677800 2.738700
H 1.680000 -7.020900 4.159100
H -0.713400 -7.024400 4.073100
H -3.637300 -9.606500 2.476400
H -5.167500 -10.071000 4.337700
H -4.391100 -6.190300 5.947200
H -2.848200 -5.732900 4.100100
H -2.763900 -8.062700 0.494200
H -2.691100 -8.001700 -1.522700
H -2.698000 -10.579300 -4.601900
H -4.544000 -10.585300 -6.219600
H -5.060000 -6.378200 -5.654600
H -3.225100 -6.383800 -3.990200
H -0.364100 -8.871600 -4.971400
H 2.019000 -8.752400 -4.887200
H 3.939100 -9.909700 -5.246200
H 6.016700 -9.709500 -6.530600
H 7.447300 -6.769800 -3.788400
H 5.329200 -6.892900 -2.546300
H 4.035700 -8.119700 -1.196600
H 3.942800 -8.176200 0.755200
H 3.979700 -5.694000 4.153000
H 5.958500 -5.901000 5.612800
Zn 7.488400 -7.415000 7.937800
C 5.511100 -11.835400 8.532900
C 4.778100 -10.673000 8.354400
C 5.452100 -9.454700 8.281100
H 3.703200 -10.706600 8.276100
N 6.789700 -9.373600 8.367600
C 4.736900 -8.204800 8.156300
C 7.482100 -10.485600 8.558400
C 6.890300 -11.738800 8.646900
H 8.552200 -10.381300 8.651600
H 7.499900 -12.613700 8.804500
H 5.022500 -12.795400 8.591100
N 5.357800 -7.086300 8.094500
H 3.650700 -8.259100 8.174200
C 8.598300 -5.681800 12.346800
C 8.713500 -4.945600 11.176100
C 8.330600 -5.534700 9.973500
H 9.098700 -3.938400 11.193700
N 7.849100 -6.788200 9.915600
C 8.423700 -4.831400 8.707000
C 7.735200 -7.483900 11.034800
C 8.096900 -6.973100 12.276100
H 7.339300 -8.483700 10.941800
H 7.986800 -7.575500 13.163000
H 8.890000 -5.257400 13.294800
N 8.172900 -5.446100 7.616400
H 8.725600 -3.786300 8.727400
C 11.870700 -9.398300 7.029200
C 10.824800 -9.364200 6.120400
C 9.635200 -8.734600 6.485100
H 10.926600 -9.817100 5.146800
N 9.472300 -8.161600 7.688800
C 8.517800 -8.642800 5.572300
C 10.477900 -8.190600 8.548100
C 11.696000 -8.795700 8.266700
H 10.311200 -7.717800 9.503800
H 12.484700 -8.796700 9.001300
H 12.802200 -9.882200 6.779900
N 7.463600 -7.991300 5.895800
H 8.636100 -9.110400 4.598200
Zn -7.322600 -7.936600 7.502000
C -11.349000 -8.048800 10.321500
C -10.216900 -7.293300 10.574900
C -9.180200 -7.291100 9.638800
H -10.132800 -6.714600 11.481500
N -9.241500 -8.002300 8.501700
C -8.000300 -6.487600 9.847200
C -10.331600 -8.714200 8.265600
C -11.410100 -8.769900 9.137400
H -10.359700 -9.269700 7.342000
H -12.274800 -9.365900 8.895300
H -12.165000 -8.073800 11.026700
N -7.038600 -6.459800 8.996700
H -7.985200 -5.895200 10.758300
C -5.394600 -11.532600 10.239600
C -4.910500 -11.143400 9.001200
C -5.517000 -10.071100 8.346400
H -4.078100 -11.658400 8.548300
N -6.555100 -9.403300 8.873900
C -5.027300 -9.610800 7.067400
C -7.006100 -9.777200 10.060100
C -6.462700 -10.832500 10.781200
H -7.837200 -9.221200 10.464200
H -6.872700 -11.097300 11.742100
H -4.952800 -12.359800 10.772400
N -5.455000 -8.535500 6.516700
H -4.231300 -10.198900 6.613200
C -9.424900 -11.031600 4.344500
C -9.456500 -9.650200 4.244500
C -8.791900 -8.886800 5.205300
H -9.989500 -9.166800 3.441400
N -8.110000 -9.451300 6.214200
C -8.788400 -7.445000 5.136800
C -8.086200 -10.772000 6.304900
C -8.728000 -11.604700 5.398800
H -7.537500 -11.189900 7.133900
H -8.681600 -12.674400 5.521800
H -9.933200 -11.650600 3.622000
N -8.132300 -6.713500 5.963200
H -9.338900 -7.003200 4.308600
Zn 7.999000 7.273900 -7.908100
C 9.845300 5.117600 -11.876000
C 9.875400 4.565900 -10.604100
C 9.262300 5.253100 -9.558000
H 10.365100 3.622100 -10.424100
N 8.643400 6.431100 -9.744700
C 9.225300 4.718400 -8.214000
C 8.609700 6.947400 -10.962500
C 9.195600 6.329200 -12.060400
H 8.099400 7.891900 -11.072800
H 9.145100 6.791200 -13.032800
H 10.315700 4.614600 -12.706400
N 8.567500 5.321800 -7.296100
H 9.730500 3.772000 -8.038000
C 12.569000 8.228500 -6.397100
C 11.451400 8.259600 -5.578100
C 10.195400 8.046100 -6.143600
H 11.547600 8.451300 -4.521300
N 10.034500 7.797000 -7.453100
C 8.986300 8.132500 -5.355900
C 11.104800 7.787500 -8.232100
C 12.391300 7.997700 -7.753500
H 10.936400 7.612000 -9.283600
H 13.229700 7.982200 -8.430700
H 13.555900 8.389100 -5.992100
N 7.840000 7.993300 -5.906100
H 9.094900 8.377500 -4.301800
C 6.395400 11.387400 -9.932800
C 5.593500 10.282300 -9.687900
C 6.161900 9.159000 -9.090400
H 4.549200 10.289400 -9.957300
N 7.460100 9.117100 -8.745500
C 5.388200 7.963800 -8.817300
C 8.220400 10.174000 -8.979200
C 7.733600 11.333300 -9.571200
H 9.255700 10.097600 -8.684400
H 8.390100 12.170700 -9.742900
H 5.987900 12.272900 -10.395100
N 5.949700 6.920400 -8.335200
H 4.329900 7.985400 -9.068900
Zn -7.509700 7.879200 -7.469900
C -5.919300 9.022200 -11.908000
C -5.140200 9.043500 -10.762600
C -5.745600 8.794600 -9.530700
H -4.083700 9.251800 -10.818800
N -7.055800 8.521800 -9.424500
C -4.997100 8.854900 -8.298600
C -7.796400 8.513900 -10.520800
C -7.276600 8.761200 -11.784400
H -8.847600 8.308100 -10.389700
H -7.922100 8.750600 -12.647600
H -5.483300 9.211900 -12.876400
N -5.529000 8.563500 -7.164800
H -3.960100 9.170200 -8.380200
C -8.892900 12.031700 -5.402600
C -9.042800 10.784100 -4.818400
C -8.639600 9.654300 -5.530300
H -9.464900 10.684300 -3.831200
N -8.107900 9.742700 -6.759600
C -8.795000 8.324500 -4.990600
C -7.969000 10.936200 -7.313900
C -8.348300 12.110100 -6.676700
H -7.546200 10.958800 -8.306800
H -8.223500 13.060200 -7.170400
H -9.197800 12.925500 -4.881000
N -8.308900 7.291500 -5.581600
H -9.341100 8.238200 -4.054300
C -11.842600 6.028800 -8.681500
C -10.638600 5.352300 -8.791600
C -9.456600 6.025000 -8.482300
H -10.611500 4.323500 -9.113500
N -9.454500 7.301700 -8.068200
C -8.167500 5.391700 -8.621800
C -10.606900 7.944800 -7.971100
C -11.827100 7.354200 -8.269800
H -10.555900 8.973900 -7.649600
H -12.739700 7.921600 -8.184800
H -12.774700 5.539200 -8.916900
N -7.084300 5.967900 -8.239800
H -8.157100 4.402500 -9.072500
Zn 7.522400 7.545800 8.087900
C 5.985700 11.908600 9.593000
C 5.147200 10.818000 9.412300
C 5.694500 9.617400 8.965300
H 4.091200 10.896100 9.616600
N 7.006600 9.486800 8.703600
C 4.882800 8.431000 8.768800
C 7.801600 10.529500 8.876000
C 7.337500 11.762700 9.318900
H 8.847000 10.381200 8.652200
H 8.022400 12.585400 9.444600
H 5.595100 12.852900 9.938800
N 5.425400 7.326400 8.424900
H 3.814600 8.516500 8.957200
C 8.846200 5.647100 12.386500
C 8.935100 4.974700 11.177000
C 8.478900 5.605800 10.021100
H 9.349500 3.980300 11.128500
N 7.957400 6.843900 10.044200
C 8.506700 4.948300 8.732300
C 7.868500 7.477400 11.202300
C 8.297900 6.921300 12.401000
H 7.440600 8.467700 11.178700
H 8.207100 7.477200 13.319900
H 9.194100 5.189100 13.299200
N 7.979200 5.508900 7.709200
H 8.944900 3.954500 8.688000
C 12.275800 8.061300 6.967200
C 11.246900 8.094500 6.039500
C 9.929800 8.020100 6.490100
H 11.458000 8.180700 4.985500
N 9.625900 7.903500 7.793000
C 8.813100 8.109900 5.576900
C 10.613500 7.894200 8.674500
C 11.952200 7.970500 8.313100
H 10.334000 7.830300 9.714900
H 12.718500 7.960600 9.071100
H 13.306300 8.114600 6.652500
N 7.611000 8.073400 6.013200
H 9.043600 8.263200 4.525400
Zn -7.368200 8.620800 7.537900
C -11.910900 7.572100 8.974700
C -10.900100 6.634700 8.830300
C -9.624500 7.069200 8.474000
H -11.093600 5.586700 8.994700
N -9.347900 8.364000 8.256000
C -8.519100 6.145300 8.350900
C -10.314000 9.255800 8.410200
C -11.610500 8.910600 8.767400
H -10.048400 10.289300 8.247200
H -12.362900 9.674100 8.880800
H -12.909900 7.269700 9.247700
N -7.334300 6.557000 8.097800
H -8.734800 5.093700 8.528300
C -5.149300 9.941000 11.649100
C -4.494300 9.634200 10.465400
C -5.252300 9.270100 9.354200
H -3.418600 9.680000 10.403400
N -6.593400 9.203900 9.396300
C -4.639000 8.944200 8.082600
C -7.213100 9.496900 10.527300
C -6.534200 9.870400 11.681400
H -8.290300 9.431300 10.519500
H -7.082600 10.098500 12.580800
H -4.595000 10.227500 12.529000
N -5.352100 8.711000 7.044800
H -3.551500 8.929300 8.040600
C -8.691200 12.986200 5.829500
C -8.994500 11.780700 5.215000
C -8.512500 10.599400 5.776500
H -9.592500 11.753900 4.317900
N -7.768700 10.593500 6.894800
C -8.760500 9.311200 5.166700
C -7.474100 11.747900 7.470700
C -7.909500 12.970700 6.975500
H -6.869800 11.701100 8.363800
H -7.646700 13.885900 7.480600
H -9.053800 13.917600 5.423400
N -8.205400 8.255600 5.631400
H -9.393000 9.289400 4.282300
Zn 8.007200 -7.173900 -7.946900
C 8.046400 -4.640200 -12.102400
C 8.010900 -4.065500 -10.841500
C 8.077100 -4.892500 -9.721300
H 7.935100 -2.996200 -10.725700
N 8.164500 -6.228600 -9.826800
C 8.086700 -4.350800 -8.380800
C 8.213300 -6.770600 -11.033700
C 8.157600 -6.019500 -12.200700
H 8.304400 -7.845200 -11.078400
H 8.202500 -6.509500 -13.159800
H 7.995400 -4.030800 -12.991000
N 8.159700 -5.115600 -7.355700
H 8.075900 -3.267100 -8.287200
C 12.666100 -8.169900 -6.870700
C 11.603100 -8.410000 -6.011200
C 10.319400 -8.056200 -6.418700
H 11.764900 -8.867000 -5.047700
N 10.080500 -7.488100 -7.612700
C 9.155300 -8.275900 -5.578200
C 11.097800 -7.255200 -8.425200
C 12.409900 -7.578000 -8.098600
H 10.861300 -6.792000 -9.371100
H 13.209000 -7.369500 -8.791200
H 13.672500 -8.435600 -6.587300
N 7.990700 -8.050200 -6.044500
H 9.316800 -8.647000 -4.568300
C 6.954000 -11.463500 -10.040200
C 6.024000 -10.461500 -9.810800
C 6.443400 -9.277700 -9.205100
H 4.991800 -10.593700 -10.094100
N 7.720200 -9.078700 -8.839200
C 5.517700 -8.199800 -8.934300
C 8.602800 -10.039700 -9.060200
C 8.270100 -11.248900 -9.657000
H 9.619300 -9.841900 -8.756800
H 9.025900 -12.000100 -9.819000
H 6.662100 -12.390200 -10.509100
N 5.884200 -7.162000 -8.280100
H 4.498400 -8.326700 -9.291600
Zn -7.871800 -7.610400 -6.765800
C -8.103700 -11.842800 -4.407700
C -7.766400 -10.636600 -3.813800
C -7.838200 -9.469500 -4.572000
H -7.454400 -10.598000 -2.782500
N -8.214000 -9.481100 -5.861400
C -7.562500 -8.170900 -3.998700
C -8.553100 -10.633200 -6.418100
C -8.515000 -11.840400 -5.732800
H -8.869600 -10.596100 -7.449700
H -8.802000 -12.752700 -6.230100
H -8.056100 -12.766500 -3.852600
N -7.673500 -7.102800 -4.697500
H -7.321400 -8.137400 -2.938300
C -12.342900 -5.855000 -7.346300
C -11.180900 -5.141100 -7.601000
C -9.951900 -5.744200 -7.339600
H -11.225000 -4.139200 -7.997700
N -9.862300 -6.991900 -6.848300
C -8.697300 -5.051200 -7.551900
C -10.973100 -7.665800 -6.599200
C -12.238100 -7.138800 -6.830900
H -10.851600 -8.660000 -6.197000
H -13.117300 -7.722600 -6.611900
H -13.310300 -5.419100 -7.541300
N -7.578300 -5.654600 -7.396600
H -8.748800 -4.003300 -7.839800
C -7.750200 -9.636100 -11.232500
C -6.717800 -9.710700 -10.310600
C -6.864700 -9.069600 -9.081300
H -5.814400 -10.254400 -10.538100
N -7.973700 -8.385000 -8.759000
C -5.814800 -9.097900 -8.088100
C -8.952500 -8.314500 -9.646500
C -8.889700 -8.921100 -10.894600
H -9.830000 -7.756300 -9.359100
H -9.715600 -8.836500 -11.581800
H -7.669200 -10.123600 -12.191500
N -5.918100 -8.413000 -7.011900
H -4.933200 -9.692900 -8.314000
&END COORD

! Atom Basis Set
! --------------
&KIND C
  BASIS_SET DZVP-MOLOPT-GTH
  POTENTIAL GTH-PBE-q4
&END KIND
&KIND H
  BASIS_SET DZVP-MOLOPT-GTH
  POTENTIAL GTH-PBE-q1
&END KIND
&KIND N
  BASIS_SET DZVP-MOLOPT-GTH
  POTENTIAL GTH-PBE-q5
&END KIND
&KIND O
  BASIS_SET DZVP-MOLOPT-GTH
  POTENTIAL GTH-PBE-q6
&END KIND
&KIND Zn
  BASIS_SET  DZVP-MOLOPT-SR-GTH
  POTENTIAL  GTH-PBE-q12
&END KIND
&END SUBSYS
&END FORCE_EVAL

! Geometry Optimization
! ---------------------
&MOTION
  &GEO_OPT
    OPTIMIZER BFGS
    MAX_ITER 2000
    MAX_DR  [bohr] 0.003
    &BFGS
    &END
  &END GEO_OPT
&END MOTION

