&GLOBAL
  PROJECT_NAME C_cl1_quad2_12_s61_optc_opt
  RUN_TYPE GEO_OPT
  EXTENDED_FFT_LENGTHS
&END GLOBAL

! Force Evaluation
! ----------------
&FORCE_EVAL
  METHOD QS
  &DFT
    BASIS_SET_FILE_NAME BASIS_MOLOPT
    POTENTIAL_FILE_NAME GTH_POTENTIALS
    CHARGE 16
    &QS
      EPS_DEFAULT 1.0E-10
    &END QS
    &MGRID
      NGRIDS 5
     CUTOFF 700
     REL_CUTOFF 60
    &END MGRID
    &SCF
      SCF_GUESS ATOMIC
      EPS_SCF 5.0E-7
      MAX_SCF 300
      &OT
        PRECONDITIONER FULL_SINGLE_INVERSE
        MINIMIZER DIIS
      &END OT
      &OUTER_SCF ! Repeat the inner SCF cycle 10 times
        MAX_SCF 10
        EPS_SCF 5.0E-7 ! Must match the above
      &END
      &PRINT
        &RESTART ON
        FILENAME C_cl1_quad2_12_s61_optc_opt.res
      &END
      &END
    &END SCF

    ! Exchange-Correlation
    ! -------------------
    &XC
      &VDW_POTENTIAL
        POTENTIAL_TYPE PAIR_POTENTIAL
        &PAIR_POTENTIAL
          TYPE DFTD3
          CALCULATE_C9_TERM .TRUE.
          PARAMETER_FILE_NAME dftd3.dat
          REFERENCE_FUNCTIONAL PBE
          R_CUTOFF 10.
          EPS_CN 0.01
        &END PAIR_POTENTIAL
      &END VDW_POTENTIAL
      &XC_FUNCTIONAL PBE
      &END XC_FUNCTIONAL
    &END XC
  &END DFT
  &PRINT
    &FORCES ON
    &END FORCES
  &END PRINT

&SUBSYS
! Cell
! ----
&CELL
  ABC 56.19 56.19 56.19
  ALPHA_BETA_GAMMA 90.0 90.0 90.0
  PERIODIC NONE
&END CELL

! Coordinates
! -----------
&COORD
C -5.180300 6.355300 7.566200
C -3.921200 6.659700 7.042600
C -3.046200 5.654300 6.669100
C -3.401400 4.310900 6.796300
C -2.589400 3.143900 6.422000
C -3.278600 2.038800 5.958900
C -2.702000 0.763800 6.031200
C -3.540500 -0.361900 5.990200
C -3.102800 -1.577300 6.478900
C -4.075200 -2.618800 6.825500
C -3.769900 -3.982300 6.887200
C -4.710600 -4.904400 7.297500
C -6.001100 -4.502800 7.656800
C -6.319100 -3.140400 7.577500
C -5.371800 -2.227700 7.183700
C -1.729300 -1.725500 6.745600
C -0.835900 -0.675300 6.622800
C 0.596700 -0.837200 6.818600
C 1.188000 -2.086700 6.871600
C 2.569600 -2.248600 7.055900
C 3.212700 -3.567500 7.063200
C 4.272600 -3.817600 7.938200
C 5.001700 -4.982200 7.849600
C 4.678300 -5.944800 6.892200
C 3.566200 -5.739000 6.071100
C 2.854000 -4.559700 6.149700
C 3.357800 -1.127200 7.171900
C 2.804500 0.158000 7.053800
C 3.648300 1.275900 7.050400
C 3.157100 2.546300 6.838900
C 4.178700 3.606000 6.785600
C 5.371900 3.305900 6.116400
C 6.492300 4.086400 6.276400
C 6.430500 5.238100 7.065700
C 5.205100 5.635200 7.600900
C 4.096900 4.813600 7.477100
C 1.769600 2.722200 6.705300
C 0.890700 1.648200 6.738000
C -0.552400 1.805000 6.559700
C -1.205800 3.026600 6.650700
C -1.335900 0.630800 6.378000
C 1.408700 0.328500 6.875800
C -4.654300 4.018100 7.351800
C -5.530300 5.007200 7.716700
H -3.631200 7.693800 6.955000
H -2.085400 5.918400 6.257600
H -4.308100 2.124400 5.650100
H -4.559500 -0.225700 5.666800
H -2.790800 -4.329800 6.600800
H -4.456800 -5.949400 7.370800
H -7.323000 -2.803600 7.781900
H -5.644600 -1.185500 7.173500
H -1.384300 -2.676700 7.113200
H 0.584500 -2.974100 6.783200
H 4.519300 -3.095700 8.701300
H 5.799100 -5.180200 8.545600
H 3.316300 -6.480600 5.329000
H 2.033800 -4.381600 5.472700
H 4.425200 -1.215700 7.298000
H 4.702600 1.120000 7.217300
H 5.422900 2.431900 5.487600
H 7.416900 3.835000 5.781300
H 5.155200 6.542300 8.182100
H 3.180400 5.088200 7.975500
H 1.397300 3.719300 6.535200
H -0.665600 3.904600 6.965600
H -4.943900 2.992700 7.514500
H -6.515000 4.741900 8.068500
C 8.694600 5.828200 -6.634900
C 9.867900 5.596700 -5.903600
C 9.946600 4.517200 -5.056500
C 8.858400 3.650500 -4.890200
C 8.771800 2.882800 -3.637800
C 9.007600 3.648300 -2.517100
C 8.782200 3.138200 -1.234100
C 8.873300 3.999100 -0.131900
C 8.556500 3.563400 1.134300
C 8.576600 4.562900 2.209800
C 9.123500 4.325400 3.470200
C 9.232800 5.346700 4.396500
C 8.820700 6.637500 4.068400
C 8.240800 6.874800 2.819700
C 8.100500 5.845200 1.920200
C 8.248500 2.207300 1.319600
C 8.208000 1.311300 0.262600
C 7.971700 -0.112900 0.455500
C 7.973900 -0.690900 1.715000
C 7.818400 -2.071400 1.896300
C 7.944900 -2.723900 3.209600
C 8.793500 -3.829800 3.302500
C 8.868400 -4.568200 4.460800
C 8.096200 -4.209000 5.566100
C 7.301100 -3.063600 5.508500
C 7.224300 -2.333100 4.335700
C 7.593000 -2.866900 0.797900
C 7.573500 -2.320300 -0.495500
C 7.387400 -3.166300 -1.597400
C 7.448400 -2.685700 -2.887300
C 7.362500 -3.687800 -3.960900
C 6.536800 -4.804400 -3.780400
C 6.685200 -5.929000 -4.560000
C 7.621700 -5.939200 -5.595900
C 8.313800 -4.768600 -5.903000
C 8.200400 -3.665200 -5.076600
C 7.708100 -1.318500 -3.084600
C 7.888100 -0.439300 -2.026800
C 8.226200 0.971300 -2.221200
C 8.370100 1.548100 -3.477400
C 8.407400 1.782500 -1.064300
C 7.804000 -0.934500 -0.692800
C 7.787800 3.765000 -5.777200
C 7.713700 4.832800 -6.651700
H 10.706200 6.270000 -6.002300
H 10.843500 4.365100 -4.475100
H 9.301000 4.682100 -2.614900
H 9.192500 5.015300 -0.302600
H 9.510000 3.347400 3.711900
H 9.709600 5.174600 5.348800
H 7.875500 7.861400 2.582500
H 7.618700 6.034400 0.974900
H 8.015300 1.879700 2.318600
H 8.159100 -0.091300 2.590300
H 9.402200 -4.106800 2.456200
H 9.541700 -5.405200 4.538100
H 6.696900 -2.801200 6.363100
H 6.571000 -1.476800 4.280700
H 7.440300 -3.928300 0.916000
H 7.253200 -4.219400 -1.409000
H 5.796800 -4.799600 -2.996500
H 6.079100 -6.805900 -4.392600
H 9.008700 -4.767500 -6.727600
H 8.822300 -2.804400 -5.266800
H 7.766000 -0.962800 -4.099900
H 8.198700 0.969000 -4.369900
H 6.972200 3.061300 -5.725100
H 6.852900 4.946700 -7.289400
C 5.290000 8.711200 -7.471900
C 4.641500 9.937000 -7.267900
C 3.923400 10.157300 -6.114900
C 3.814400 9.167000 -5.133000
C 2.764600 9.270200 -4.108700
C 1.517400 9.644100 -4.561800
C 0.386500 9.525900 -3.739000
C -0.897000 9.692100 -4.286300
C -2.026700 9.366400 -3.563600
C -3.337200 9.313200 -4.216200
C -4.539700 9.463500 -3.517400
C -5.758700 9.331300 -4.147400
C -5.822700 9.051800 -5.519800
C -4.622800 8.911900 -6.221400
C -3.411600 9.032100 -5.584600
C -1.870000 9.013100 -2.212000
C -0.629900 8.947800 -1.607000
C -0.485600 8.608100 -0.201000
C -1.534700 8.714800 0.695200
C -1.389600 8.359700 2.046600
C -2.372600 8.740000 3.066500
C -1.865700 9.162100 4.301000
C -2.698400 9.587400 5.305700
C -4.085000 9.603600 5.112600
C -4.602500 9.193200 3.883300
C -3.753900 8.776900 2.873200
C -0.207500 7.772300 2.448100
C 0.915500 7.788600 1.607500
C 2.182700 7.548000 2.156700
C 3.314700 7.966200 1.490300
C 4.478900 8.098500 2.387200
C 4.907300 7.013200 3.153100
C 5.656500 7.210200 4.293500
C 5.924300 8.509400 4.732000
C 5.614300 9.590500 3.903400
C 4.927000 9.377700 2.724600
C 3.214100 8.406500 0.163300
C 1.987600 8.475200 -0.484500
C 1.847800 8.859500 -1.887400
C 2.919700 8.886000 -2.766200
C 0.542500 9.125100 -2.388100
C 0.805900 8.263900 0.278100
C 4.587200 8.012500 -5.273400
C 5.322700 7.791100 -6.420900
H 4.717500 10.718400 -8.009100
H 3.422100 11.103700 -5.978900
H 1.377900 9.937900 -5.591000
H -0.968700 10.050100 -5.301300
H -4.525500 9.698200 -2.465100
H -6.661900 9.401300 -3.561900
H -4.659700 8.722900 -7.279600
H -2.509400 8.879100 -6.153400
H -2.745700 8.739900 -1.648400
H -2.467800 9.150200 0.378200
H -0.800800 9.182200 4.466600
H -2.287000 9.869700 6.263200
H -5.667900 9.244000 3.722900
H -4.173700 8.461800 1.931500
H -0.093500 7.385500 3.447600
H 2.254500 7.189800 3.171700
H 4.615600 6.014400 2.871100
H 5.948100 6.380200 4.914100
H 5.902900 10.590300 4.192200
H 4.657800 10.221300 2.107000
H 4.114600 8.713500 -0.343900
H 3.905000 8.607100 -2.429700
H 4.559500 7.256300 -4.505100
H 5.876000 6.874200 -6.538900
C -7.402800 6.729000 4.847100
C -8.484100 5.864900 4.647700
C -8.310400 4.695500 3.936700
C -7.076800 4.399900 3.352700
C -7.021200 3.430200 2.243500
C -6.652900 3.940600 1.017600
C -6.863000 3.203000 -0.160300
C -6.704700 3.822000 -1.414000
C -7.045700 3.158900 -2.570300
C -7.043800 3.839900 -3.872500
C -6.570300 3.214500 -5.027900
C -6.666800 3.831500 -6.256700
C -7.249400 5.100600 -6.369400
C -7.674500 5.749700 -5.208600
C -7.574300 5.127300 -3.982700
C -7.495600 1.830800 -2.489000
C -7.647500 1.175600 -1.280900
C -8.190700 -0.175900 -1.198300
C -8.447300 -0.947200 -2.319900
C -9.015700 -2.227100 -2.227800
C -9.136700 -3.156100 -3.356300
C -10.228600 -4.026700 -3.433800
C -10.195800 -5.129400 -4.255700
C -9.064800 -5.388500 -5.041700
C -8.055200 -4.423800 -5.099900
C -8.086100 -3.330700 -4.259400
C -9.342100 -2.725900 -0.986400
C -8.997000 -2.024300 0.177100
C -9.114900 -2.653900 1.424000
C -8.545300 -2.098400 2.548000
C -8.446800 -3.043200 3.676500
C -7.204000 -3.541000 4.069200
C -7.113500 -4.723300 4.777500
C -8.272300 -5.432500 5.100100
C -9.521900 -4.857200 4.845300
C -9.601900 -3.674800 4.143600
C -8.011800 -0.805000 2.477300
C -8.015100 -0.086700 1.289500
C -7.575400 1.301500 1.206800
C -7.468300 2.104900 2.330600
C -7.347600 1.870500 -0.076800
C -8.413100 -0.736300 0.089400
C -5.975600 5.193300 3.677200
C -6.125100 6.323800 4.453700
H -9.455500 6.119800 5.044900
H -9.158000 4.051100 3.758400
H -6.297900 4.956300 0.940900
H -6.337700 4.835600 -1.451400
H -6.108000 2.242800 -4.954000
H -6.254200 3.353900 -7.131100
H -8.136600 6.718900 -5.292700
H -7.950100 5.625500 -3.103100
H -7.786900 1.349800 -3.407300
H -8.220700 -0.574600 -3.304600
H -11.103200 -3.845900 -2.827400
H -11.049700 -5.788200 -4.305100
H -7.214600 -4.572500 -5.757700
H -7.257800 -2.640700 -4.253100
H -9.771100 -3.710800 -0.885000
H -9.562800 -3.635100 1.469500
H -6.305200 -3.041100 3.745800
H -6.153100 -5.161100 4.997800
H -10.420700 -5.346800 5.190200
H -10.571000 -3.259300 3.910700
H -7.597400 -0.374200 3.374100
H -7.750300 1.723900 3.299000
H -5.003000 4.936800 3.288900
H -5.283200 6.960200 4.671900
C -6.379400 -4.461700 -8.518400
C -6.225200 -3.529200 -9.553000
C -5.052200 -2.821500 -9.670900
C -3.994500 -3.015500 -8.775300
C -2.948900 -1.971600 -8.772200
C -3.431600 -0.700300 -8.554000
C -2.605500 0.422100 -8.694000
C -3.158300 1.709500 -8.578300
C -2.427500 2.813600 -8.941100
C -3.096900 4.125700 -8.965600
C -3.255600 4.806000 -10.172400
C -4.007400 5.961100 -10.234300
C -4.602600 6.471100 -9.076100
C -4.411900 5.812900 -7.858100
C -3.672000 4.651100 -7.808500
C -1.096800 2.651300 -9.346800
C -0.479800 1.412000 -9.357400
C 0.917100 1.249700 -9.734900
C 1.753800 2.331900 -9.950900
C 3.091400 2.173200 -10.344200
C 4.059100 3.271500 -10.421500
C 5.077700 3.235600 -11.380300
C 6.183000 4.046000 -11.269000
C 6.294100 4.938400 -10.193600
C 5.190800 5.113300 -9.353100
C 4.097900 4.278300 -9.453700
C 3.577400 0.899200 -10.535200
C 2.789400 -0.221400 -10.236900
C 3.373800 -1.493700 -10.256000
C 2.701800 -2.589900 -9.763000
C 3.579100 -3.769000 -9.616600
C 3.925800 -4.275000 -8.364000
C 5.064300 -5.045400 -8.206800
C 5.888700 -5.302100 -9.303300
C 5.464100 -4.928500 -10.582100
C 4.316800 -4.182100 -10.731100
C 1.362500 -2.449700 -9.371000
C 0.702700 -1.229100 -9.457200
C -0.718200 -1.069100 -9.148200
C -1.581400 -2.150700 -9.024100
C -1.243700 0.251500 -9.053300
C 1.443600 -0.068800 -9.820500
C -4.092600 -4.054100 -7.852700
C -5.267600 -4.775800 -7.732100
H -7.020300 -3.374600 -10.266200
H -4.953800 -2.085500 -10.454400
H -4.474500 -0.553100 -8.320200
H -4.189800 1.808600 -8.280100
H -2.821300 4.404000 -11.075300
H -4.184500 6.433100 -11.188900
H -4.831600 6.240700 -6.960300
H -3.530100 4.143500 -6.867800
H -0.560800 3.535000 -9.650300
H 1.388300 3.337200 -9.826300
H 5.006200 2.552000 -12.212500
H 6.954700 4.004600 -12.022600
H 5.229600 5.871800 -8.587200
H 3.292600 4.365800 -8.742100
H 4.603800 0.739800 -10.827000
H 4.399500 -1.584600 -10.580000
H 3.343100 -4.001700 -7.499000
H 5.383300 -5.367700 -7.228300
H 6.042400 -5.217200 -11.447500
H 4.013700 -3.866400 -11.718300
H 0.846300 -3.321900 -9.004100
H -1.220600 -3.154300 -9.181400
H -3.268900 -4.260900 -7.187900
H -5.352000 -5.547700 -6.984200
C 6.509000 -7.279200 3.650400
C 6.143200 -8.284200 2.749800
C 4.997000 -8.150600 1.993700
C 4.195700 -7.012100 2.104300
C 2.868900 -6.990300 1.472100
C 1.783400 -6.644600 2.244900
C 0.477000 -6.896800 1.791000
C -0.593000 -6.823500 2.694300
C -1.832400 -7.335500 2.367800
C -2.798200 -7.550400 3.453500
C -4.184500 -7.434600 3.332700
C -5.015300 -7.666300 4.413900
C -4.485300 -8.034900 5.652800
C -3.094100 -8.144500 5.780600
C -2.277900 -7.915600 4.701300
C -2.068200 -7.733400 1.039600
C -1.068900 -7.709100 0.079000
C -1.303100 -8.098000 -1.309900
C -2.577300 -8.242800 -1.840500
C -2.779400 -8.659200 -3.165200
C -4.049400 -8.674000 -3.904800
C -4.869000 -7.546100 -3.967800
C -5.746700 -7.380900 -5.020500
C -5.804200 -8.326200 -6.049200
C -5.157300 -9.556300 -5.860700
C -4.300100 -9.722900 -4.798900
C -1.684400 -8.928200 -3.957500
C -0.385700 -8.674900 -3.500900
C 0.683600 -8.734600 -4.406700
C 1.949900 -8.363400 -4.022100
C 2.990500 -8.321500 -5.058100
C 2.686900 -7.711500 -6.277400
C 3.581200 -7.732400 -7.323400
C 4.823200 -8.351000 -7.165100
C 5.146000 -8.935100 -5.940200
C 4.237900 -8.920000 -4.898900
C 2.179300 -8.008400 -2.685400
C 1.155500 -7.968700 -1.752900
C 1.382900 -7.567500 -0.371500
C 2.654500 -7.435900 0.159300
C 0.257200 -7.375300 0.474200
C -0.174300 -8.257700 -2.163000
C 4.607600 -5.981500 2.952700
C 5.738300 -6.117000 3.728800
H 6.713300 -9.199900 2.704500
H 4.692500 -8.960200 1.348500
H 1.920800 -6.290400 3.253900
H -0.408700 -6.417900 3.675800
H -4.619300 -7.144400 2.389500
H -6.086000 -7.595300 4.307400
H -2.654300 -8.362200 6.741600
H -1.214700 -8.042700 4.824800
H -3.042800 -8.121000 0.791900
H -3.446400 -8.040100 -1.236100
H -4.754200 -6.760300 -3.238300
H -6.330000 -6.479100 -5.100900
H -5.322900 -10.369100 -6.551600
H -3.776400 -10.660000 -4.682000
H -1.816500 -9.243500 -4.981100
H 0.488500 -9.056400 -5.418200
H 1.736700 -7.217100 -6.399600
H 3.347300 -7.241700 -8.254900
H 6.081300 -9.459800 -5.836700
H 4.482200 -9.414900 -3.971500
H 3.179000 -7.715900 -2.411200
H 3.519500 -7.680600 -0.434000
H 4.030500 -5.072500 3.008300
H 6.052700 -5.326800 4.391000
Zn 8.178000 7.931400 6.922600
C 12.072900 5.890400 9.024500
C 10.904300 5.213700 8.709100
C 9.854200 5.921700 8.127100
H 10.807000 4.159300 8.914100
N 9.939700 7.234300 7.856900
C 8.597500 5.281300 7.801700
C 11.055900 7.874400 8.162400
C 12.149200 7.247300 8.748300
H 11.089500 8.928700 7.935600
H 13.037100 7.813300 8.979000
H 12.905400 5.374800 9.477100
N 7.605000 5.952400 7.349600
H 8.522800 4.211800 7.991900
C 5.945200 10.382500 10.443700
C 5.573100 10.417800 9.108000
C 6.233200 9.587500 8.204100
H 4.787800 11.075500 8.770800
N 7.218000 8.758500 8.589700
C 5.855700 9.519700 6.808500
C 7.560400 8.718500 9.867400
C 6.951700 9.510400 10.833300
H 8.349300 8.031200 10.133100
H 7.264000 9.446800 11.863000
H 5.458900 11.017700 11.167500
N 6.406600 8.660300 6.035500
H 5.046800 10.164400 6.472300
C 10.335100 12.202200 5.748900
C 10.215100 11.116800 4.896200
C 9.583500 9.962500 5.358100
H 10.609500 11.158000 3.893300
N 9.077400 9.870500 6.597300
C 9.453100 8.794100 4.519700
C 9.205500 10.908900 7.409400
C 9.823100 12.094300 7.034000
H 8.807400 10.797600 8.406100
H 9.900800 12.909800 7.734400
H 10.819000 13.110000 5.423900
N 8.981000 7.693200 4.971600
H 9.798300 8.886900 3.492100
Zn 7.636100 -7.136900 6.628700
C 6.099900 -11.776100 6.364100
C 5.258800 -10.674900 6.338800
C 5.804200 -9.405900 6.525700
H 4.198900 -10.794800 6.181000
N 7.120700 -9.215000 6.712200
C 4.973600 -8.224300 6.585200
C 7.914400 -10.273200 6.759600
C 7.453000 -11.572500 6.592600
H 8.961300 -10.086200 6.943700
H 8.141700 -12.400200 6.642700
H 5.712200 -12.772600 6.220500
N 5.494500 -7.071900 6.782200
H 3.898000 -8.369700 6.519800
C 8.561700 -6.070100 11.293600
C 8.583000 -5.130500 10.272500
C 8.279300 -5.541300 8.976800
H 8.833800 -4.101500 10.476100
N 7.963200 -6.816000 8.689400
C 8.291700 -4.620800 7.854100
C 7.940800 -7.707100 9.666400
C 8.233600 -7.382100 10.985900
H 7.679000 -8.717200 9.390800
H 8.203000 -8.140800 11.750900
H 8.794500 -5.785700 12.307800
N 8.100700 -5.062800 6.672300
H 8.492300 -3.571700 8.059700
C 12.115600 -8.644300 5.386900
C 11.046100 -8.581700 4.507200
C 9.825300 -8.088000 4.964800
H 11.154700 -8.907000 3.484700
N 9.653900 -7.673400 6.231200
C 8.682500 -7.960900 4.088300
C 10.680800 -7.729000 7.063700
C 11.931300 -8.204600 6.689800
H 10.505700 -7.384800 8.071400
H 12.737300 -8.231800 7.405000
H 13.072500 -9.024900 5.065500
N 7.605500 -7.404300 4.501900
H 8.799600 -8.308700 3.065300
Zn -7.211200 -7.447800 7.348200
C -11.178700 -6.422800 10.038300
C -10.092500 -5.581000 9.869600
C -9.063100 -5.967300 9.008500
H -10.037000 -4.641800 10.396900
N -9.094900 -7.129900 8.336500
C -7.926600 -5.110300 8.779500
C -10.136800 -7.928300 8.505000
C -11.202400 -7.621800 9.339400
H -10.130200 -8.856200 7.955700
H -12.027800 -8.307600 9.439300
H -11.988700 -6.154300 10.698300
N -6.960300 -5.447900 8.002100
H -7.945400 -4.150700 9.289700
C -5.695300 -10.131100 11.139400
C -5.101400 -10.114800 9.888500
C -5.562100 -9.205800 8.933900
H -4.294600 -10.791100 9.653200
N -6.571000 -8.355200 9.182000
C -4.927300 -9.100200 7.642400
C -7.119300 -8.365500 10.386300
C -6.717200 -9.228600 11.397000
H -7.910700 -7.656400 10.569800
H -7.197100 -9.192900 12.361400
H -5.366500 -10.822700 11.899100
N -5.300200 -8.235100 6.767500
H -4.088300 -9.769300 7.465600
C -9.510300 -11.307300 5.349300
C -9.626500 -9.999800 4.905400
C -8.872100 -9.005800 5.528400
H -10.290600 -9.750100 4.093200
N -8.032700 -9.274700 6.541200
C -8.946100 -7.628700 5.099200
C -7.922600 -10.526900 6.954400
C -8.638300 -11.576900 6.394200
H -7.240400 -10.710200 7.769900
H -8.516600 -12.578400 6.773300
H -10.085000 -12.098700 4.894300
N -8.162400 -6.738900 5.585800
H -9.662900 -7.393700 4.315300
Zn 7.741100 -7.697100 -8.271500
C 9.454400 -11.647700 -6.032100
C 9.114000 -10.467600 -5.387400
C 8.632000 -9.403100 -6.146600
H 9.222900 -10.372400 -4.318700
N 8.485300 -9.487100 -7.479600
C 8.272700 -8.134700 -5.544300
C 8.810700 -10.614600 -8.089500
C 9.299900 -11.723300 -7.408500
H 8.677100 -10.640900 -9.160000
H 9.550800 -12.621800 -7.948400
H 9.831800 -12.491600 -5.476100
N 7.929100 -7.134100 -6.265400
H 8.338600 -8.059600 -4.460300
C 11.867800 -5.651000 -9.815700
C 10.600100 -5.144100 -10.058300
C 9.497300 -5.800800 -9.514200
H 10.465800 -4.257200 -10.657000
N 9.626600 -6.908600 -8.766000
C 8.150700 -5.306800 -9.700900
C 10.839600 -7.382800 -8.530300
C 11.991100 -6.788900 -9.031500
H 10.899400 -8.271800 -7.921300
H 12.958200 -7.213300 -8.816200
H 12.741600 -5.170000 -10.226800
N 7.159700 -5.848500 -9.095800
H 8.024900 -4.434200 -10.337800
C 6.729000 -9.244900 -12.802300
C 5.801800 -9.156700 -11.775700
C 6.233600 -8.763700 -10.510000
H 4.763700 -9.391900 -11.949300
N 7.515500 -8.457000 -10.256500
C 5.323800 -8.697400 -9.388300
C 8.398400 -8.559600 -11.237600
C 8.055800 -8.948000 -12.525900
H 9.423600 -8.328200 -10.991300
H 8.812400 -9.016900 -13.290600
H 6.428100 -9.544500 -13.794000
N 5.742500 -8.395000 -8.217900
H 4.285800 -8.961700 -9.578200
Zn -6.711500 9.134500 6.916300
C -10.182400 8.259000 10.243900
C -8.984100 7.573600 10.135200
C -8.147800 7.840400 9.049000
H -8.695800 6.846500 10.878000
N -8.466200 8.742000 8.105400
C -6.927900 7.098300 8.852200
C -9.618200 9.385100 8.213800
C -10.509800 9.179000 9.257400
H -9.853000 10.097300 7.438900
H -11.436600 9.727900 9.294900
H -10.848800 8.079400 11.072900
N -6.129300 7.330100 7.871400
H -6.749300 6.285200 9.552500
C -5.391600 12.688000 10.087000
C -4.771700 12.422000 8.877400
C -5.181100 11.310900 8.138000
H -3.986900 13.063300 8.508000
N -6.158800 10.488700 8.552600
C -4.530600 10.971900 6.896000
C -6.731400 10.743200 9.717900
C -6.386200 11.823700 10.519800
H -7.499400 10.063100 10.048400
H -6.887900 11.979500 11.460800
H -5.104300 13.541000 10.681600
N -4.910200 9.982000 6.173200
H -3.680500 11.589500 6.612900
C -9.764300 12.241800 4.703000
C -9.684200 10.884700 4.434300
C -8.701400 10.127500 5.072100
H -10.370300 10.417100 3.745800
N -7.829000 10.672300 5.936000
C -8.538900 8.719700 4.790400
C -7.903600 11.971100 6.176900
C -8.851500 12.797700 5.587800
H -7.182500 12.379000 6.867700
H -8.872700 13.849600 5.821500
H -10.517800 12.854700 4.233400
N -7.570100 8.046000 5.291800
H -9.230600 8.279700 4.074600
Zn 7.792800 7.575100 -9.192500
C 9.019700 11.805000 -7.170800
C 9.105100 10.576800 -6.535200
C 8.794200 9.422900 -7.254300
H 9.407700 10.510000 -5.502500
N 8.405800 9.471000 -8.538300
C 8.892600 8.111600 -6.659800
C 8.333500 10.645900 -9.143000
C 8.632400 11.841000 -8.503000
H 8.031000 10.633600 -10.179100
H 8.566700 12.774000 -9.039000
H 9.255300 12.716700 -6.644300
N 8.478300 7.056200 -7.265800
H 9.331200 8.059200 -5.666200
C 12.234200 5.892300 -10.241800
C 11.068100 5.150400 -10.337000
C 9.846300 5.781100 -10.100600
H 11.099800 4.103300 -10.592400
N 9.768700 7.080100 -9.769700
C 8.595000 5.075700 -10.235700
C 10.885400 7.785500 -9.690700
C 12.141100 7.239300 -9.920900
H 10.777900 8.829400 -9.439100
H 13.021800 7.856900 -9.852200
H 13.195300 5.435900 -10.420600
N 7.474500 5.627800 -9.933200
H 8.648300 4.058600 -10.615000
C 5.881200 8.862700 -13.456700
C 5.231900 9.007800 -12.241300
C 5.907900 8.663400 -11.070900
H 4.221600 9.382400 -12.197600
N 7.164300 8.191300 -11.089800
C 5.303200 8.830000 -9.770200
C 7.781200 8.058700 -12.252900
C 7.183300 8.382400 -13.463400
H 8.793900 7.686600 -12.219900
H 7.727800 8.265200 -14.386300
H 5.388200 9.122500 -14.380400
N 5.873200 8.400300 -8.702000
H 4.344600 9.342100 -9.740100
Zn -8.233500 -6.994200 -7.696900
C -9.868000 -11.264100 -6.039600
C -9.822000 -10.098800 -5.291900
C -9.419900 -8.915600 -5.911500
H -10.094200 -10.102100 -4.248500
N -9.065000 -8.876000 -7.205500
C -9.402300 -7.659400 -5.202400
C -9.122400 -9.990100 -7.917100
C -9.519600 -11.207900 -7.381800
H -8.848100 -9.910100 -8.958000
H -9.557600 -12.087600 -8.003700
H -10.176400 -12.196000 -5.591900
N -8.928500 -6.590700 -5.735500
H -9.819000 -7.659700 -4.198500
C -12.389600 -4.622600 -8.393300
C -11.135400 -4.034800 -8.440600
C -10.007200 -4.849900 -8.355800
H -11.031200 -2.966200 -8.540700
N -10.100900 -6.182000 -8.216500
C -8.671800 -4.309200 -8.453400
C -11.300500 -6.739300 -8.189600
C -12.474600 -6.002600 -8.277500
H -11.328300 -7.814500 -8.099700
H -13.429400 -6.502600 -8.257600
H -13.284100 -4.022400 -8.453800
N -7.628700 -5.035600 -8.262700
H -8.593200 -3.255300 -8.709500
C -6.565500 -8.397400 -12.016000
C -5.925400 -8.648000 -10.812800
C -6.526300 -8.221400 -9.628000
H -4.980400 -9.167000 -10.788800
N -7.700200 -7.570100 -9.623500
C -5.921700 -8.472100 -8.341700
C -8.308100 -7.334600 -10.775100
C -7.782300 -7.730000 -11.997800
H -9.253300 -6.816200 -10.720900
H -8.316200 -7.523200 -12.911100
H -6.129600 -8.718200 -12.949400
N -6.423700 -8.001300 -7.255400
H -5.013500 -9.069300 -8.338700
Zn -7.333200 7.824800 -8.092500
C -11.744300 9.261000 -6.644700
C -10.567900 9.612300 -6.002600
C -9.363100 9.076600 -6.460600
H -10.578800 10.289900 -5.163600
N -9.312100 8.235400 -7.507500
C -8.108300 9.382600 -5.811400
C -10.440300 7.897400 -8.110800
C -11.680600 8.381100 -7.716200
H -10.355900 7.213600 -8.940900
H -12.573300 8.077900 -8.238300
H -12.690800 9.661700 -6.316800
N -7.009400 8.850800 -6.211900
H -8.151900 10.068300 -4.969400
C -6.556400 11.950600 -10.658700
C -5.726800 10.842000 -10.706900
C -6.018900 9.744500 -9.897500
H -4.868700 10.824300 -11.360100
N -7.076900 9.727600 -9.070700
C -5.180100 8.569200 -9.898800
C -7.859100 10.793700 -9.024700
C -7.643900 11.927100 -9.797500
H -8.699000 10.750400 -8.348900
H -8.315200 12.767400 -9.727500
H -6.361700 12.813200 -11.276600
N -5.411000 7.606100 -9.085800
H -4.332700 8.567700 -10.579000
C -8.414300 5.497700 -12.267100
C -8.134700 4.863700 -11.067600
C -7.926100 5.638600 -9.927100
H -8.077900 3.788300 -11.013700
N -7.980300 6.979700 -9.957800
C -7.681700 5.032300 -8.639600
C -8.272800 7.577600 -11.101600
C -8.496000 6.882600 -12.282500
H -8.341900 8.654000 -11.080500
H -8.730900 7.418300 -13.187900
H -8.576000 4.929800 -13.170000
N -7.437800 5.738900 -7.597300
H -7.762400 3.949200 -8.593600
&END COORD

! Atom Basis Set
! --------------
&KIND C
  BASIS_SET DZVP-MOLOPT-GTH
  POTENTIAL GTH-PBE-q4
&END KIND
&KIND H
  BASIS_SET DZVP-MOLOPT-GTH
  POTENTIAL GTH-PBE-q1
&END KIND
&KIND N
  BASIS_SET DZVP-MOLOPT-GTH
  POTENTIAL GTH-PBE-q5
&END KIND
&KIND O
  BASIS_SET DZVP-MOLOPT-GTH
  POTENTIAL GTH-PBE-q6
&END KIND
&KIND Zn
  BASIS_SET  DZVP-MOLOPT-SR-GTH
  POTENTIAL  GTH-PBE-q12
&END KIND
&END SUBSYS
&END FORCE_EVAL

! Geometry Optimization
! ---------------------
&MOTION
  &GEO_OPT
    OPTIMIZER BFGS
    MAX_ITER 2000
    MAX_DR  [bohr] 0.003
    &BFGS
    &END
  &END GEO_OPT
&END MOTION

