&GLOBAL
  PROJECT_NAME C_cl1_quad2_12_c2h_optc_opt
  RUN_TYPE GEO_OPT
  EXTENDED_FFT_LENGTHS
&END GLOBAL

! Force Evaluation
! ----------------
&FORCE_EVAL
  METHOD QS
  &DFT
    BASIS_SET_FILE_NAME BASIS_MOLOPT
    POTENTIAL_FILE_NAME GTH_POTENTIALS
    CHARGE 16
    &QS
      EPS_DEFAULT 1.0E-10
    &END QS
    &MGRID
      NGRIDS 5
     CUTOFF 700
     REL_CUTOFF 60
    &END MGRID
    &SCF
      SCF_GUESS ATOMIC
      EPS_SCF 5.0E-7
      MAX_SCF 300
      &OT
        PRECONDITIONER FULL_SINGLE_INVERSE
        MINIMIZER DIIS
      &END OT
      &OUTER_SCF ! Repeat the inner SCF cycle 10 times
        MAX_SCF 10
        EPS_SCF 5.0E-7 ! Must match the above
      &END
      &PRINT
        &RESTART ON
        FILENAME C_cl1_quad2_12_c2h_optc_opt.res
      &END
      &END
    &END SCF

    ! Exchange-Correlation
    ! -------------------
    &XC
      &VDW_POTENTIAL
        POTENTIAL_TYPE PAIR_POTENTIAL
        &PAIR_POTENTIAL
          TYPE DFTD3
          CALCULATE_C9_TERM .TRUE.
          PARAMETER_FILE_NAME dftd3.dat
          REFERENCE_FUNCTIONAL PBE
          R_CUTOFF 10.
          EPS_CN 0.01
        &END PAIR_POTENTIAL
      &END VDW_POTENTIAL
      &XC_FUNCTIONAL PBE
      &END XC_FUNCTIONAL
    &END XC
  &END DFT
  &PRINT
    &FORCES ON
    &END FORCES
  &END PRINT

&SUBSYS
! Cell
! ----
&CELL
  ABC 55.96 55.96 55.96
  ALPHA_BETA_GAMMA 90.0 90.0 90.0
  PERIODIC NONE
&END CELL

! Coordinates
! -----------
&COORD
C -4.279000 6.714800 8.086200
C -3.419400 6.332600 9.121400
C -2.597900 5.233100 8.971000
C -2.616900 4.492400 7.790400
C -1.981800 3.164100 7.722100
C -2.824500 2.103000 7.493600
C -2.351900 0.783000 7.550900
C -3.260800 -0.277000 7.437900
C -2.845900 -1.588500 7.521800
C -3.889200 -2.623000 7.482800
C -3.845700 -3.785000 8.256400
C -4.940800 -4.625400 8.343100
C -6.132700 -4.294700 7.697300
C -6.162300 -3.169900 6.867100
C -5.046700 -2.379000 6.733400
C -1.477500 -1.844800 7.715500
C -0.540900 -0.828400 7.832900
C 0.879400 -1.089000 8.062800
C 1.399500 -2.371500 8.125100
C 2.762100 -2.617100 8.362200
C 3.351100 -3.961500 8.379800
C 4.416100 -4.227600 9.246500
C 5.133100 -5.397700 9.149800
C 4.777000 -6.365200 8.209400
C 3.648900 -6.154400 7.412100
C 2.961500 -4.959000 7.485100
C 3.608700 -1.545800 8.534900
C 3.134300 -0.229700 8.455100
C 4.036100 0.837400 8.595700
C 3.618600 2.133500 8.419600
C 4.658000 3.179000 8.482600
C 5.379400 3.360100 9.663000
C 6.476200 4.195100 9.698200
C 6.876000 4.868400 8.540100
C 6.122700 4.736900 7.373100
C 5.027500 3.895700 7.346500
C 2.266500 2.390500 8.161200
C 1.326800 1.372100 8.105800
C -0.096400 1.634200 7.924700
C -0.621200 2.918200 7.947500
C -0.973500 0.526300 7.761700
C 1.759300 0.021600 8.210700
C -3.414100 4.930600 6.729700
C -4.240300 6.023500 6.872900
H -3.459100 6.844500 10.071200
H -1.980200 4.913300 9.796400
H -3.876800 2.270200 7.328600
H -4.306300 -0.033500 7.342600
H -2.965600 -4.013000 8.837100
H -4.913100 -5.497100 8.977700
H -7.055600 -2.948300 6.305500
H -5.075000 -1.549400 6.046600
H -1.168500 -2.874700 7.772900
H 0.753800 -3.226000 8.013800
H 4.682700 -3.510900 10.007400
H 5.946900 -5.597000 9.826700
H 3.366300 -6.902800 6.688800
H 2.134800 -4.776700 6.817400
H 4.664400 -1.696300 8.695100
H 5.073200 0.624400 8.805200
H 5.081200 2.834300 10.557600
H 7.010700 4.349400 10.623800
H 6.445800 5.252300 6.482900
H 4.475600 3.763100 6.429600
H 1.971500 3.417500 8.025500
H 0.013700 3.767600 8.136600
H -3.390400 4.394900 5.794100
H -4.858700 6.366000 6.058100
C 8.131800 5.895900 -5.152500
C 8.695700 4.702400 -5.600700
C 8.660900 3.569500 -4.798800
C 8.021200 3.597400 -3.563200
C 8.205400 2.658400 -2.437800
C 8.599000 3.309900 -1.288400
C 8.569100 2.668900 -0.047600
C 8.681000 3.444800 1.111600
C 8.405100 2.908500 2.348000
C 8.340700 3.901000 3.434500
C 9.081900 3.848000 4.611500
C 9.159700 4.953500 5.441400
C 8.515300 6.139300 5.089700
C 7.691700 6.167800 3.961800
C 7.593700 5.053500 3.163500
C 8.173300 1.529500 2.447700
C 8.136600 0.710900 1.326200
C 7.941800 -0.731600 1.408500
C 7.963600 -1.399800 2.618800
C 7.843600 -2.794600 2.703800
C 7.961400 -3.460000 4.010900
C 8.767600 -4.592800 4.139300
C 8.880500 -5.249400 5.345400
C 8.191800 -4.782000 6.466400
C 7.418400 -3.623700 6.359400
C 7.302000 -2.979100 5.142800
C 7.661900 -3.521900 1.549000
C 7.631700 -2.887300 0.291800
C 7.493600 -3.653100 -0.882100
C 7.539000 -3.060900 -2.124800
C 7.470900 -3.850600 -3.364000
C 8.077000 -5.107000 -3.454500
C 8.107400 -5.804900 -4.645400
C 7.556900 -5.246100 -5.798500
C 6.890100 -4.020100 -5.703500
C 6.834800 -3.347000 -4.502400
C 7.704700 -1.665700 -2.202200
C 7.818800 -0.865600 -1.080400
C 8.027000 0.578100 -1.174700
C 7.959900 1.279200 -2.375100
C 8.257200 1.292100 0.034200
C 7.790000 -1.476400 0.206100
C 7.297800 4.748700 -3.220200
C 7.384400 5.892500 -3.971200
H 9.253800 4.697700 -6.523800
H 9.198600 2.687200 -5.110000
H 8.867500 4.354500 -1.316800
H 8.930200 4.489700 1.010200
H 9.648800 2.962400 4.853200
H 9.785100 4.934300 6.319500
H 7.124400 7.058800 3.743100
H 6.953300 5.075400 2.296500
H 7.986700 1.124400 3.428300
H 8.133100 -0.859000 3.534700
H 9.326200 -4.949900 3.288300
H 9.531300 -6.102000 5.446400
H 6.865400 -3.279200 7.219500
H 6.669800 -2.109000 5.062800
H 7.545700 -4.594000 1.594000
H 7.349900 -4.718200 -0.787200
H 8.574100 -5.523400 -2.592400
H 8.622300 -6.750200 -4.713900
H 6.386600 -3.629800 -6.574500
H 6.291800 -2.417400 -4.441200
H 7.790800 -1.227000 -3.181900
H 7.679300 0.776700 -3.285800
H 6.712200 4.752400 -2.315000
H 6.877700 6.790900 -3.658700
C 5.427500 8.554400 -5.682600
C 5.182800 9.687700 -4.902400
C 4.407600 9.590600 -3.762300
C 3.821300 8.376200 -3.410300
C 2.644500 8.329100 -2.511900
C 1.458400 8.236500 -3.202800
C 0.230000 8.260300 -2.530000
C -0.969100 8.239600 -3.265300
C -2.181600 8.252500 -2.619800
C -3.451500 8.241300 -3.353900
C -4.506300 7.424000 -2.945600
C -5.701700 7.417200 -3.631600
C -5.866000 8.220300 -4.763800
C -4.824200 9.061100 -5.156900
C -3.634600 9.070200 -4.460500
C -2.202400 8.302100 -1.219900
C -1.047500 8.362300 -0.465800
C -1.090200 8.457600 0.982400
C -2.285900 8.572700 1.663700
C -2.354300 8.598000 3.062900
C -3.657500 8.653500 3.731400
C -3.827500 9.394200 4.902100
C -5.025300 9.369700 5.582100
C -6.092700 8.622700 5.085000
C -5.956500 7.935700 3.878700
C -4.742800 7.937900 3.224400
C -1.186300 8.519700 3.782900
C 0.052700 8.419200 3.125100
C 1.226900 8.293000 3.876700
C 2.455600 8.156800 3.267400
C 3.579900 7.985500 4.205300
C 3.383700 7.100400 5.271900
C 4.232600 7.086400 6.352900
C 5.349700 7.925600 6.378700
C 5.617700 8.726600 5.268500
C 4.734700 8.764300 4.201000
C 2.534600 8.199500 1.865600
C 1.400000 8.321700 1.072700
C 1.445600 8.345100 -0.393400
C 2.634300 8.384500 -1.112700
C 0.215600 8.320800 -1.111800
C 0.127400 8.400700 1.708300
C 4.161700 7.231500 -4.131300
C 4.984500 7.308200 -5.236900
H 5.594100 10.641100 -5.199000
H 4.198000 10.478700 -3.185500
H 1.464300 8.182100 -4.280600
H -0.915200 8.198200 -4.341800
H -4.372100 6.773000 -2.096500
H -6.497300 6.752500 -3.335800
H -4.978100 9.743700 -5.975200
H -2.847800 9.746200 -4.758300
H -3.167600 8.333400 -0.745500
H -3.211700 8.676300 1.125200
H -3.017900 10.000600 5.276500
H -5.161800 9.955700 6.476200
H -6.783000 7.349600 3.509300
H -4.625100 7.350600 2.328400
H -1.203300 8.502800 4.861500
H 1.152400 8.320000 4.952700
H 2.532500 6.438800 5.256900
H 4.055300 6.417700 7.179800
H 6.469500 9.387700 5.288500
H 4.919200 9.449900 3.388000
H 3.508200 8.102700 1.413800
H 3.581300 8.453200 -0.602900
H 3.744900 6.279900 -3.842500
H 5.220400 6.427300 -5.811600
C -7.294800 4.899300 5.901900
C -6.493100 3.780900 5.648000
C -6.536200 3.149400 4.422400
C -7.371100 3.616700 3.407100
C -7.491900 2.895300 2.126400
C -7.325000 3.521100 0.913500
C -7.532800 2.819700 -0.291400
C -7.380100 3.469800 -1.531900
C -7.708000 2.832500 -2.706900
C -7.655300 3.556500 -3.990500
C -8.779800 3.589900 -4.816600
C -8.777600 4.323300 -5.985300
C -7.642100 5.050200 -6.356600
C -6.505100 5.001800 -5.548400
C -6.514300 4.258000 -4.384800
C -8.151100 1.501300 -2.665600
C -8.237900 0.795400 -1.479600
C -8.690000 -0.591400 -1.440100
C -8.801400 -1.379900 -2.574100
C -9.326100 -2.680700 -2.517800
C -9.207900 -3.675700 -3.591700
C -10.245800 -4.567700 -3.874500
C -10.012200 -5.719700 -4.594200
C -8.723500 -6.003200 -5.061400
C -7.717000 -5.053100 -4.888100
C -7.954500 -3.907100 -4.160700
C -9.795300 -3.166400 -1.317700
C -9.544900 -2.466900 -0.128700
C -9.711600 -3.121800 1.100400
C -9.151800 -2.598300 2.243100
C -9.038900 -3.530500 3.374800
C -7.778600 -3.864100 3.871500
C -7.615900 -4.951700 4.706000
C -8.717400 -5.735700 5.050700
C -9.995500 -5.348200 4.635400
C -10.149500 -4.255600 3.810400
C -8.591100 -1.313900 2.210600
C -8.561600 -0.563400 1.045600
C -8.088800 0.815800 1.003600
C -7.849700 1.538400 2.157600
C -7.947700 1.460400 -0.256100
C -8.955700 -1.178800 -0.172800
C -8.143200 4.752100 3.650300
C -8.112000 5.382400 4.879300
H -5.810600 3.439400 6.409700
H -5.909900 2.290700 4.238400
H -7.039000 4.560500 0.870800
H -7.055700 4.498600 -1.542900
H -9.676100 3.063600 -4.524700
H -9.675000 4.386900 -6.582700
H -5.620400 5.532200 -5.864700
H -5.625700 4.210800 -3.775700
H -8.425600 1.035100 -3.597600
H -8.478800 -1.008000 -3.532700
H -11.240200 -4.367600 -3.504000
H -10.825800 -6.396800 -4.808800
H -6.732700 -5.267300 -5.267500
H -7.149100 -3.215400 -3.971100
H -10.226000 -4.154300 -1.258000
H -10.164300 -4.101700 1.110700
H -6.916400 -3.301100 3.551300
H -6.634100 -5.248000 5.040200
H -10.861000 -5.899600 4.971500
H -11.137800 -3.973500 3.480000
H -8.183100 -0.922300 3.127300
H -7.998500 1.085800 3.123700
H -8.805200 5.120200 2.881500
H -8.767700 6.213800 5.077500
C -6.212500 -4.593600 -7.795000
C -4.918200 -4.955900 -8.172100
C -3.886700 -4.039300 -8.090400
C -4.105000 -2.755700 -7.585800
C -3.093300 -1.692700 -7.619300
C -3.531600 -0.404500 -7.836400
C -2.637200 0.674000 -7.864400
C -3.135400 1.975900 -8.015300
C -2.292600 3.063100 -8.002100
C -2.906700 4.393000 -8.120200
C -2.527200 5.475000 -7.328100
C -3.234400 6.663100 -7.370700
C -4.362500 6.773000 -8.182300
C -4.722900 5.711600 -9.011100
C -3.987800 4.549300 -8.993200
C -0.913200 2.850000 -7.853800
C -0.373300 1.578000 -7.742400
C 1.061800 1.347300 -7.604800
C 1.999100 2.355400 -7.761800
C 3.377500 2.138500 -7.574300
C 4.394800 3.154800 -7.866900
C 5.674800 2.724900 -8.241900
C 6.687800 3.613200 -8.503000
C 6.455500 4.992200 -8.432600
C 5.171800 5.435400 -8.102600
C 4.165100 4.533000 -7.818400
C 3.787600 0.884100 -7.170800
C 2.893900 -0.195900 -7.152700
C 3.403200 -1.501700 -7.083400
C 2.584900 -2.584800 -7.304000
C 3.221300 -3.892400 -7.531800
C 4.300500 -3.920700 -8.418800
C 4.988500 -5.087300 -8.667500
C 4.602800 -6.265300 -8.033600
C 3.501300 -6.260200 -7.181700
C 2.823400 -5.080300 -6.928200
C 1.202000 -2.381800 -7.418400
C 0.646600 -1.111400 -7.419600
C -0.788900 -0.883800 -7.549100
C -1.712600 -1.914300 -7.476700
C -1.244200 0.453200 -7.721600
C 1.509900 0.017000 -7.371300
C -5.381400 -2.449500 -7.096600
C -6.425700 -3.332500 -7.227400
H -4.749900 -5.934700 -8.592300
H -2.911800 -4.313300 -8.461200
H -4.575100 -0.196700 -8.011600
H -4.202300 2.111400 -8.098300
H -1.695300 5.375400 -6.649200
H -2.968200 7.487700 -6.727800
H -5.554400 5.826700 -9.686900
H -4.252900 3.750900 -9.668300
H -0.271900 3.715400 -7.846600
H 1.681600 3.333600 -8.080700
H 5.884800 1.673700 -8.347300
H 7.677100 3.240600 -8.716700
H 4.975900 6.497000 -8.108200
H 3.192800 4.908100 -7.542000
H 4.817100 0.688800 -6.919700
H 4.463200 -1.639900 -6.939700
H 4.586700 -3.020300 -8.940200
H 5.792100 -5.107500 -9.385200
H 3.212000 -7.174400 -6.689300
H 1.991200 -5.083000 -6.242400
H 0.581600 -3.249600 -7.568800
H -1.383100 -2.920800 -7.280700
H -5.555400 -1.503500 -6.610700
H -7.403600 -3.076900 -6.850900
C 6.449500 -7.859900 4.992300
C 5.993000 -8.865900 4.136400
C 4.847600 -8.667900 3.396700
C 4.140500 -7.464700 3.474700
C 2.865800 -7.340600 2.760900
C 1.744400 -6.856200 3.394300
C 0.474100 -7.036500 2.813900
C -0.674700 -6.847700 3.592700
C -1.894900 -7.360600 3.193500
C -2.928000 -7.497400 4.229700
C -4.308100 -7.443400 4.022300
C -5.191700 -7.579200 5.077700
C -4.731500 -7.762200 6.385900
C -3.347600 -7.825100 6.596400
C -2.479400 -7.719700 5.540000
C -2.030400 -7.827100 1.869800
C -0.948700 -7.885400 1.003100
C -1.055500 -8.352500 -0.381900
C -2.254200 -8.398500 -1.078900
C -2.318000 -8.899700 -2.389500
C -3.465300 -8.788400 -3.309600
C -3.848300 -9.891400 -4.077300
C -4.586800 -9.728000 -5.228900
C -4.972000 -8.446400 -5.637700
C -4.723000 -7.363600 -4.795000
C -3.978000 -7.534300 -3.644500
C -1.180100 -9.403800 -2.983600
C 0.074300 -9.249600 -2.375200
C 1.248900 -9.529600 -3.098800
C 2.484900 -9.133500 -2.628300
C 3.704000 -9.213000 -3.439700
C 3.636200 -9.330000 -4.831400
C 4.767700 -9.274200 -5.612900
C 6.024000 -9.084000 -5.037000
C 6.112200 -9.026400 -3.643100
C 4.976700 -9.099500 -2.868100
C 2.540000 -8.561900 -1.345800
C 1.426100 -8.413600 -0.547200
C 1.532200 -7.905600 0.806700
C 2.747700 -7.838300 1.456800
C 0.346700 -7.589100 1.514900
C 0.141300 -8.690600 -1.074400
C 4.619300 -6.453800 4.307000
C 5.748100 -6.654800 5.070700
H 6.497400 -9.819800 4.105800
H 4.473800 -9.471000 2.780200
H 1.807900 -6.457500 4.394100
H -0.567700 -6.364900 4.550100
H -4.697300 -7.280500 3.029600
H -6.255700 -7.572000 4.900500
H -2.948700 -7.913800 7.594200
H -1.425700 -7.828000 5.737600
H -2.990000 -8.201600 1.550800
H -3.163200 -8.038600 -0.623700
H -3.526100 -10.881300 -3.790000
H -4.863900 -10.587000 -5.822100
H -5.020500 -6.378100 -5.111000
H -3.719800 -6.678000 -3.042000
H -1.227700 -9.817000 -3.979900
H 1.140200 -10.024900 -4.050500
H 2.681800 -9.454800 -5.316300
H 4.693900 -9.414600 -6.677000
H 7.070200 -8.870600 -3.172000
H 5.095200 -9.071700 -1.797900
H 3.484200 -8.190100 -0.991600
H 3.643800 -8.189000 0.974300
H 4.104500 -5.507900 4.353700
H 6.117400 -5.876300 5.716100
Zn 8.246400 7.659300 7.841600
C 12.612200 6.352200 9.606600
C 11.472000 5.566700 9.677700
C 10.293000 6.037500 9.101700
H 11.494300 4.607200 10.169700
N 10.226400 7.227100 8.482500
C 9.077400 5.254200 9.121200
C 11.320100 7.968400 8.412000
C 12.535900 7.575900 8.957600
H 11.230100 8.917100 7.905600
H 13.399000 8.216600 8.877700
H 13.539600 6.019100 10.045700
N 8.028700 5.655700 8.506300
H 9.111300 4.300500 9.642900
C 6.413500 8.505400 12.265500
C 5.651500 8.357300 11.117200
C 6.300200 8.198500 9.893700
H 4.574400 8.368800 11.165900
N 7.638600 8.172100 9.795700
C 5.561200 8.093900 8.655400
C 8.361200 8.331200 10.893400
C 7.796100 8.501700 12.150500
H 9.433600 8.327600 10.771000
H 8.427900 8.628700 13.014600
H 5.944300 8.628400 13.229100
N 6.155900 7.992700 7.525500
H 4.477200 8.157600 8.725600
C 9.581600 11.980300 6.079500
C 9.508800 10.815400 5.329500
C 9.084100 9.642700 5.951200
H 9.780700 10.813800 4.285800
N 8.740000 9.609200 7.249300
C 8.977000 8.389200 5.232300
C 8.806400 10.723400 7.959000
C 9.221400 11.934800 7.418400
H 8.516600 10.652000 8.996200
H 9.259300 12.818500 8.034400
H 9.909400 12.905100 5.631000
N 8.686200 7.304500 5.846600
H 9.163100 8.408500 4.160300
Zn 7.723300 -7.592700 7.867500
C 6.138800 -12.225900 7.958400
C 5.308800 -11.120200 7.862800
C 5.866800 -9.847400 7.969000
H 4.247500 -11.239200 7.713100
N 7.185400 -9.657600 8.141700
C 5.046100 -8.657100 7.971600
C 7.967700 -10.718800 8.259200
C 7.493400 -12.021600 8.176800
H 9.016200 -10.531300 8.433900
H 8.173200 -12.851200 8.283200
H 5.741100 -13.225500 7.878200
N 5.579800 -7.502800 8.110400
H 3.968300 -8.795800 7.928000
C 8.889700 -6.064400 12.326300
C 8.878400 -5.238100 11.211500
C 8.507900 -5.775400 9.980800
H 9.156000 -4.199200 11.293000
N 8.158500 -7.066700 9.846100
C 8.482000 -4.976600 8.769500
C 8.167000 -7.850500 10.911900
C 8.525800 -7.394400 12.174900
H 7.872900 -8.877400 10.756400
H 8.518200 -8.067800 13.016500
H 9.175000 -5.680000 13.293000
N 8.237900 -5.531800 7.645500
H 8.706500 -3.916000 8.858500
C 12.053500 -9.429200 6.556300
C 10.940900 -9.388500 5.730200
C 9.778100 -8.776800 6.196200
H 10.972200 -9.821800 4.743200
N 9.702800 -8.228800 7.420700
C 8.597800 -8.658900 5.369900
C 10.771700 -8.260900 8.199500
C 11.970000 -8.848500 7.813500
H 10.674400 -7.803700 9.172300
H 12.813300 -8.852400 8.484600
H 12.967100 -9.899500 6.227700
N 7.576200 -8.013600 5.795100
H 8.643400 -9.084200 4.371000
Zn -7.602200 -7.136700 7.703400
C -11.972300 -5.238200 8.790700
C -10.829600 -4.494500 8.543600
C -9.631600 -5.163000 8.293900
H -10.862200 -3.416800 8.546600
N -9.556200 -6.503100 8.275900
C -8.395800 -4.447800 8.074800
C -10.648200 -7.207800 8.524700
C -11.879200 -6.622900 8.787800
H -10.539300 -8.281300 8.519100
H -12.740100 -7.240400 8.986400
H -12.916000 -4.753900 8.987300
N -7.284700 -5.063300 7.897500
H -8.446900 -3.361900 8.112300
C -6.381400 -8.812800 12.071300
C -5.629600 -8.982200 10.919900
C -6.048100 -8.357700 9.743200
H -4.735900 -9.586200 10.929800
N -7.160400 -7.606100 9.694100
C -5.275500 -8.450800 8.526500
C -7.866100 -7.437700 10.800200
C -7.516800 -8.016700 12.013300
H -8.744600 -6.816400 10.722700
H -8.122400 -7.849700 12.889000
H -6.087600 -9.285400 12.995500
N -5.617300 -7.821900 7.456800
H -4.374200 -9.055700 8.580300
C -9.531600 -11.511400 6.504300
C -9.684400 -10.354200 5.758000
C -9.054400 -9.186100 6.186800
H -10.281300 -10.352200 4.859900
N -8.303100 -9.142800 7.298600
C -9.185400 -7.953500 5.447900
C -8.157900 -10.254700 8.001400
C -8.749200 -11.460800 7.648600
H -7.549800 -10.193400 8.890400
H -8.602700 -12.335600 8.261000
H -10.009200 -12.430600 6.203100
N -8.516800 -6.911500 5.777400
H -9.855200 -7.958500 4.591300
Zn -7.311000 7.615900 7.748900
C -6.619100 11.952300 9.941700
C -5.631300 10.991900 9.789800
C -5.944300 9.800400 9.136800
H -4.636000 11.162100 10.168800
N -7.172700 9.553000 8.653500
C -4.951800 8.768700 8.933700
C -8.109000 10.476300 8.798800
C -7.883100 11.690900 9.433300
H -9.084400 10.244300 8.400200
H -8.680100 12.410100 9.529100
H -6.410100 12.884000 10.444000
N -5.222200 7.728900 8.237300
H -3.969800 8.937200 9.368500
C -7.351100 5.113700 11.918500
C -7.245300 4.529300 10.666000
C -7.332600 5.338900 9.534500
H -7.096800 3.465900 10.566700
N -7.508200 6.667300 9.621400
C -7.276400 4.779900 8.202100
C -7.628700 7.217000 10.819800
C -7.556900 6.483200 11.996900
H -7.794000 8.283100 10.849200
H -7.662500 6.978900 12.948300
H -7.284500 4.518200 12.815600
N -7.319400 5.521500 7.158300
H -7.245000 3.694600 8.132900
C -11.949500 8.531100 6.546400
C -10.866900 8.808900 5.724100
C -9.590300 8.456400 6.155300
H -11.007500 9.295600 4.771900
N -9.377800 7.851100 7.336600
C -8.407500 8.709000 5.353100
C -10.414200 7.581500 8.113100
C -11.720100 7.902200 7.761300
H -10.198400 7.089400 9.049100
H -12.535200 7.663300 8.424800
H -12.950800 8.796300 6.244900
N -7.252000 8.489900 5.849900
H -8.545200 9.090500 4.343700
Zn 7.848900 7.768500 -7.739200
C 9.537800 11.726900 -5.403400
C 9.351600 10.481300 -4.825100
C 8.892500 9.431600 -5.619700
H 9.561500 10.321500 -3.779700
N 8.616700 9.592500 -6.922600
C 8.698600 8.105800 -5.079400
C 8.808100 10.781700 -7.472000
C 9.264700 11.879500 -6.755300
H 8.594200 10.865600 -8.526200
H 9.403100 12.827600 -7.248900
H 9.891000 12.561400 -4.818100
N 8.343600 7.115900 -5.812500
H 8.893200 7.980600 -4.016000
C 11.833100 6.849600 -10.377100
C 10.681700 6.079600 -10.386400
C 9.646700 6.403100 -9.507100
H 10.582700 5.244900 -11.062500
N 9.729900 7.440400 -8.657300
C 8.446400 5.604800 -9.434800
C 10.838800 8.161400 -8.644600
C 11.917100 7.906800 -9.481800
H 10.878700 8.976400 -7.939300
H 12.799900 8.523200 -9.432800
H 12.649600 6.629200 -11.046900
N 7.490600 5.898300 -8.626500
H 8.407700 4.731100 -10.080700
C 6.058400 10.613500 -11.288800
C 5.559200 10.573200 -9.996400
C 6.101900 9.661200 -9.092200
H 4.763900 11.235100 -9.692100
N 7.093900 8.822200 -9.431000
C 5.596200 9.551300 -7.742600
C 7.556000 8.857500 -10.670500
C 7.073000 9.733200 -11.634700
H 8.345900 8.164400 -10.915400
H 7.487600 9.725100 -12.629600
H 5.665600 11.311800 -12.011200
N 6.016900 8.637000 -6.952000
H 4.811600 10.245700 -7.449200
Zn 7.377100 -7.868000 -7.695300
C 8.915600 -5.460700 -11.651400
C 8.762100 -4.893000 -10.396200
C 8.288100 -5.685800 -9.351000
H 9.006100 -3.856300 -10.226600
N 7.978200 -6.981200 -9.524400
C 8.101500 -5.146300 -8.021500
C 8.126700 -7.517100 -10.725500
C 8.588700 -6.798500 -11.820500
H 7.870300 -8.560400 -10.823300
H 8.690000 -7.279900 -12.779500
H 9.280100 -4.876000 -12.481400
N 7.732200 -5.878300 -7.035600
H 8.310200 -4.086200 -7.892100
C 11.806100 -9.655800 -6.610400
C 10.665600 -9.880800 -5.856200
C 9.469400 -9.276100 -6.243900
H 10.697900 -10.515200 -4.984500
N 9.386200 -8.486300 -7.327000
C 8.255200 -9.469700 -5.485100
C 10.481600 -8.271100 -8.038200
C 11.713100 -8.829500 -7.721100
H 10.383100 -7.629100 -8.899300
H 12.576000 -8.622500 -8.332700
H 12.745700 -10.110900 -6.338700
N 7.146000 -8.939800 -5.849700
H 8.329200 -10.095600 -4.598400
C 5.716500 -11.824000 -10.087700
C 4.951100 -10.692700 -9.844200
C 5.523600 -9.633200 -9.145000
H 3.932500 -10.631100 -10.193400
N 6.788600 -9.671600 -8.697800
C 4.782300 -8.416200 -8.865900
C 7.513700 -10.752400 -8.933500
C 7.022400 -11.855000 -9.622600
H 8.527300 -10.745200 -8.563300
H 7.651700 -12.714200 -9.788900
H 5.305500 -12.662800 -10.627300
N 5.345200 -7.432700 -8.282800
H 3.743600 -8.376100 -9.190300
Zn -7.434100 -7.538000 -7.524100
C -8.863400 -11.955100 -5.940500
C -9.114700 -10.764500 -5.278200
C -8.675200 -9.569400 -5.847100
H -9.642600 -10.756900 -4.337900
N -8.010500 -9.538400 -7.012700
C -8.923300 -8.295500 -5.213700
C -7.780800 -10.679100 -7.643900
C -8.186400 -11.911700 -7.151200
H -7.257200 -10.612100 -8.585300
H -7.979800 -12.812900 -7.705500
H -9.191700 -12.896300 -5.528000
N -8.405100 -7.216500 -5.670700
H -9.556800 -8.298500 -4.329900
C -11.819200 -6.237700 -9.232200
C -10.764100 -5.363900 -9.024300
C -9.544100 -5.873800 -8.580900
H -10.881600 -4.307100 -9.204000
N -9.363100 -7.183300 -8.345600
C -8.399200 -5.017700 -8.376600
C -10.370400 -8.013800 -8.559500
C -11.617400 -7.590900 -9.000200
H -10.180300 -9.060000 -8.376700
H -12.407800 -8.306400 -9.158900
H -12.777100 -5.876300 -9.572300
N -7.272100 -5.484700 -7.980000
H -8.530100 -3.964100 -8.612200
C -5.257300 -9.007200 -11.613500
C -4.727000 -9.173600 -10.343300
C -5.441700 -8.690100 -9.248000
H -3.778900 -9.667500 -10.201100
N -6.625100 -8.070100 -9.386900
C -4.942500 -8.821400 -7.896400
C -7.124100 -7.910200 -10.601600
C -6.478000 -8.361100 -11.745900
H -8.076500 -7.407900 -10.669800
H -6.925800 -8.212400 -12.714800
H -4.732900 -9.373100 -12.482300
N -5.515000 -8.233400 -6.910800
H -4.043300 -9.418400 -7.758200
Zn -7.225800 7.955000 -7.637200
C -11.785700 8.121600 -5.885500
C -10.647900 8.080400 -5.095000
C -9.398000 8.116000 -5.710800
H -10.724900 8.024900 -4.021000
N -9.262000 8.175700 -7.045600
C -8.173900 8.130500 -4.941600
C -10.352600 8.231800 -7.793900
C -11.635300 8.208300 -7.261900
H -10.204100 8.302400 -8.860600
H -12.491800 8.258400 -7.914600
H -12.768900 8.094300 -5.442500
N -7.036300 8.191600 -5.525400
H -8.268600 8.139600 -3.858400
C -6.006600 12.558300 -8.700300
C -5.112900 11.497200 -8.728100
C -5.570100 10.226800 -8.386300
H -4.084200 11.650300 -9.013400
N -6.845600 10.000200 -8.028500
C -4.698500 9.065500 -8.400300
C -7.692700 11.015400 -8.000800
C -7.320300 12.313900 -8.328600
H -8.705700 10.789500 -7.704900
H -8.044100 13.111800 -8.291200
H -5.685800 13.554600 -8.961400
N -5.181800 7.906500 -8.173700
H -3.646800 9.221800 -8.630500
C -8.735900 6.592900 -12.077600
C -8.714200 5.753900 -10.973900
C -8.242300 6.249900 -9.759700
H -9.054400 4.733400 -11.051700
N -7.810600 7.515000 -9.626600
C -8.180700 5.421400 -8.575200
C -7.831600 8.310000 -10.684100
C -8.283400 7.896000 -11.930900
H -7.479400 9.319400 -10.537300
H -8.283300 8.581900 -12.762300
H -9.097500 6.240600 -13.031000
N -7.630700 5.850200 -7.501800
H -8.596000 4.419200 -8.650500
&END COORD

! Atom Basis Set
! --------------
&KIND C
  BASIS_SET DZVP-MOLOPT-GTH
  POTENTIAL GTH-PBE-q4
&END KIND
&KIND H
  BASIS_SET DZVP-MOLOPT-GTH
  POTENTIAL GTH-PBE-q1
&END KIND
&KIND N
  BASIS_SET DZVP-MOLOPT-GTH
  POTENTIAL GTH-PBE-q5
&END KIND
&KIND O
  BASIS_SET DZVP-MOLOPT-GTH
  POTENTIAL GTH-PBE-q6
&END KIND
&KIND Zn
  BASIS_SET  DZVP-MOLOPT-SR-GTH
  POTENTIAL  GTH-PBE-q12
&END KIND
&END SUBSYS
&END FORCE_EVAL

! Geometry Optimization
! ---------------------
&MOTION
  &GEO_OPT
    OPTIMIZER BFGS
    MAX_ITER 2000
    MAX_DR  [bohr] 0.003
    &BFGS
    &END
  &END GEO_OPT
&END MOTION

