&GLOBAL
  PROJECT_NAME C_cl1_quad2_12_d32_optc_opt
  RUN_TYPE GEO_OPT
  EXTENDED_FFT_LENGTHS
&END GLOBAL

! Force Evaluation
! ----------------
&FORCE_EVAL
  METHOD QS
  &DFT
    BASIS_SET_FILE_NAME BASIS_MOLOPT
    POTENTIAL_FILE_NAME GTH_POTENTIALS
    CHARGE 16
    &QS
      EPS_DEFAULT 1.0E-10
    &END QS
    &MGRID
      NGRIDS 5
     CUTOFF 700
     REL_CUTOFF 60
    &END MGRID
    &SCF
      SCF_GUESS ATOMIC
      EPS_SCF 5.0E-7
      MAX_SCF 300
      &OT
        PRECONDITIONER FULL_SINGLE_INVERSE
        MINIMIZER DIIS
      &END OT
      &OUTER_SCF ! Repeat the inner SCF cycle 10 times
        MAX_SCF 10
        EPS_SCF 5.0E-7 ! Must match the above
      &END
      &PRINT
        &RESTART ON
        FILENAME C_cl1_quad2_12_d32_optc_opt.res
      &END
      &END
    &END SCF

    ! Exchange-Correlation
    ! -------------------
    &XC
      &VDW_POTENTIAL
        POTENTIAL_TYPE PAIR_POTENTIAL
        &PAIR_POTENTIAL
          TYPE DFTD3
          CALCULATE_C9_TERM .TRUE.
          PARAMETER_FILE_NAME dftd3.dat
          REFERENCE_FUNCTIONAL PBE
          R_CUTOFF 10.
          EPS_CN 0.01
        &END PAIR_POTENTIAL
      &END VDW_POTENTIAL
      &XC_FUNCTIONAL PBE
      &END XC_FUNCTIONAL
    &END XC
  &END DFT
  &PRINT
    &FORCES ON
    &END FORCES
  &END PRINT

&SUBSYS
! Cell
! ----
&CELL
  ABC 57.44 57.44 57.44
  ALPHA_BETA_GAMMA 90.0 90.0 90.0
  PERIODIC NONE
&END CELL

! Coordinates
! -----------
&COORD
C 7.921800 5.349900 8.135100
C 7.292500 5.425800 9.373500
C 6.032100 4.878400 9.536800
C 5.420200 4.188900 8.495100
C 4.085600 3.579300 8.637500
C 2.977400 4.332200 8.938200
C 1.695400 3.748500 8.918200
C 0.549600 4.546600 9.087600
C -0.704600 4.005100 8.928500
C -1.897300 4.862000 8.951300
C -2.819200 4.784200 7.905000
C -3.913100 5.617100 7.880500
C -4.131300 6.546800 8.899700
C -3.228900 6.601800 9.969800
C -2.124000 5.776000 9.982000
C -0.840900 2.631100 8.677200
C 0.252000 1.790100 8.590500
C 0.113700 0.347600 8.405000
C -1.120300 -0.276700 8.380200
C -1.248800 -1.670800 8.279700
C -2.579400 -2.293000 8.350500
C -2.772400 -3.401300 9.177100
C -4.008100 -4.000300 9.280600
C -5.096100 -3.502000 8.561600
C -4.913800 -2.388100 7.737000
C -3.669300 -1.797900 7.633800
C -0.116800 -2.447200 8.177400
C 1.161200 -1.859200 8.181800
C 2.314700 -2.664100 8.114900
C 3.569000 -2.100000 8.164100
C 4.791300 -2.914700 8.149900
C 4.876800 -4.089900 8.898000
C 6.037100 -4.836700 8.916000
C 7.155900 -4.421500 8.192900
C 7.078600 -3.241300 7.447000
C 5.910900 -2.510200 7.419700
C 3.686400 -0.704300 8.263800
C 2.584500 0.125900 8.327100
C 2.719500 1.570400 8.471700
C 3.945600 2.204200 8.405300
C 1.553900 2.355700 8.670700
C 1.286000 -0.447800 8.297700
C 6.087200 4.067000 7.277000
C 7.312000 4.668600 7.083700
H 7.774600 5.946400 10.187700
H 5.533100 4.966800 10.490300
H 3.069800 5.389600 9.135700
H 0.669500 5.601900 9.282200
H -2.650600 4.087900 7.099100
H -4.610000 5.601100 7.059900
H -3.405800 7.259800 10.806900
H -1.437400 5.822600 10.814100
H -1.842200 2.247300 8.580600
H -2.025500 0.295800 8.491200
H -1.951900 -3.776600 9.768200
H -4.157900 -4.820800 9.960400
H -5.738200 -2.022500 7.144900
H -3.533300 -0.955600 6.974100
H -0.197700 -3.519700 8.089700
H 2.196000 -3.732300 8.021600
H 4.036700 -4.402900 9.498600
H 6.109500 -5.712400 9.539700
H 7.925000 -2.934700 6.853400
H 5.856100 -1.621200 6.811900
H 4.679000 -0.295200 8.343900
H 4.843600 1.650800 8.188100
H 5.624300 3.520200 6.471000
H 7.831600 4.586000 6.142800
C 9.201200 6.295400 4.297000
C 8.344000 6.114800 3.205000
C 8.215400 4.872300 2.620900
C 8.942400 3.777400 3.094100
C 8.823500 2.454800 2.466800
C 8.775200 1.308700 3.228200
C 8.733000 0.043100 2.616900
C 8.728500 -1.125700 3.404500
C 8.814100 -2.360900 2.812400
C 8.896700 -3.600200 3.612300
C 10.086500 -4.326100 3.642200
C 10.184800 -5.486000 4.383200
C 9.083000 -5.943000 5.111700
C 7.889700 -5.219900 5.083000
C 7.799400 -4.063600 4.334900
C 8.847500 -2.459900 1.415800
C 8.768200 -1.346300 0.600500
C 8.742900 -1.454900 -0.853100
C 8.697400 -2.677600 -1.496400
C 8.703000 -2.787100 -2.895300
C 8.664600 -4.109200 -3.533000
C 9.443100 -4.366900 -4.663300
C 9.375800 -5.583300 -5.307200
C 8.540300 -6.586600 -4.817000
C 7.796400 -6.357400 -3.658200
C 7.847700 -5.126200 -3.037500
C 8.746300 -1.641700 -3.656800
C 8.761700 -0.374400 -3.046900
C 8.795100 0.787300 -3.836900
C 8.788500 2.038400 -3.259400
C 8.875900 3.237000 -4.102000
C 8.327100 3.242100 -5.387700
C 8.510600 4.312500 -6.234500
C 9.199800 5.445200 -5.795200
C 9.691700 5.480600 -4.490600
C 9.550900 4.381600 -3.668900
C 8.743600 2.136300 -1.858200
C 8.746000 1.023900 -1.037300
C 8.744200 1.130400 0.419600
C 8.788600 2.350600 1.067100
C 8.737200 -0.058800 1.199000
C 8.752000 -0.267200 -1.630600
C 9.800100 3.965600 4.180900
C 9.922200 5.201100 4.781800
H 7.740000 6.938900 2.859400
H 7.523900 4.738500 1.804300
H 8.772200 1.366000 4.305700
H 8.709200 -1.032500 4.479100
H 10.945300 -3.969400 3.093500
H 11.126000 -6.012000 4.440700
H 7.036900 -5.599300 5.622800
H 6.870500 -3.517300 4.301100
H 8.930900 -3.448700 0.997300
H 8.685000 -3.592500 -0.929200
H 10.120100 -3.612100 -5.031500
H 9.998700 -5.785200 -6.163300
H 7.134900 -7.129700 -3.298200
H 7.227500 -4.941900 -2.174800
H 8.738600 -1.699900 -4.734400
H 8.861400 0.671800 -4.907300
H 7.748900 2.398100 -5.726700
H 8.080500 4.309100 -7.223600
H 10.240900 6.346800 -4.159400
H 10.006400 4.402200 -2.691900
H 8.694100 3.123500 -1.432900
H 8.845200 3.265600 0.503000
H 10.391800 3.140400 4.544600
H 10.605200 5.345300 5.602900
C 7.376800 8.546600 -3.549100
C 6.973000 9.542400 -2.654000
C 5.736100 9.466400 -2.048200
C 4.875800 8.401600 -2.316500
C 3.530200 8.377000 -1.717000
C 2.414700 8.269600 -2.514100
C 1.125400 8.346200 -1.954000
C -0.013700 8.314100 -2.781000
C -1.272200 8.451200 -2.242200
C -2.488300 8.399300 -3.064000
C -3.550400 9.278700 -2.843300
C -4.736500 9.147500 -3.535100
C -4.897500 8.123500 -4.476900
C -3.811800 7.289200 -4.745800
C -2.631300 7.421100 -4.047700
C -1.412800 8.582100 -0.852600
C -0.330400 8.550300 0.003900
C -0.493000 8.587000 1.452600
C -1.739000 8.561600 2.047500
C -1.909100 8.531500 3.441300
C -3.250900 8.368000 4.012300
C -3.602700 8.938400 5.238200
C -4.821500 8.667600 5.823000
C -5.745500 7.839200 5.183300
C -5.431200 7.328300 3.919000
C -4.197200 7.573700 3.358600
C -0.792800 8.581200 4.246700
C 0.497700 8.612000 3.687000
C 1.630600 8.631200 4.520400
C 2.894600 8.558100 3.983200
C 4.068900 8.524100 4.866100
C 4.204900 9.465100 5.887500
C 5.284500 9.427200 6.742900
C 6.256300 8.429100 6.605000
C 6.135500 7.500300 5.570600
C 5.056500 7.549600 4.713500
C 3.053400 8.493700 2.590900
C 1.973900 8.539300 1.727900
C 2.135300 8.496200 0.277000
C 3.379100 8.498500 -0.327800
C 0.976500 8.459200 -0.544600
C 0.663600 8.586200 2.275700
C 5.297800 7.396100 -3.187400
C 6.531600 7.465700 -3.803100
H 7.602200 10.403600 -2.487600
H 5.417800 10.257600 -1.386600
H 2.513400 8.177800 -3.584400
H 0.119300 8.223700 -3.847800
H -3.441900 10.083900 -2.132400
H -5.529300 9.863400 -3.378700
H -3.910800 6.503600 -5.473800
H -1.822900 6.733600 -4.236600
H -2.413700 8.681400 -0.469100
H -2.628100 8.572700 1.441300
H -2.917000 9.605200 5.737200
H -5.085000 9.122100 6.763500
H -6.130400 6.678400 3.417400
H -3.947000 7.109300 2.418500
H -0.887000 8.549500 5.321300
H 1.492800 8.665000 5.590500
H 3.469500 10.247800 5.996700
H 5.403900 10.199000 7.488700
H 6.868200 6.714300 5.492900
H 4.954600 6.808300 3.937000
H 4.059400 8.433600 2.212000
H 4.277300 8.578500 0.260700
H 4.655000 6.549200 -3.367900
H 6.874800 6.682300 -4.461400
C -7.110400 4.057900 6.186700
C -8.070400 3.065400 5.957000
C -8.157700 2.446900 4.726100
C -7.291900 2.794400 3.689300
C -7.372300 2.152400 2.369400
C -7.334800 2.911900 1.222800
C -7.421500 2.303900 -0.042100
C -7.416200 3.088800 -1.211100
C -7.568500 2.501300 -2.443000
C -7.546600 3.305100 -3.678600
C -8.640800 3.350000 -4.540900
C -8.597700 4.100400 -5.699600
C -7.436400 4.807000 -6.029500
C -6.336500 4.747100 -5.172700
C -6.392500 4.015600 -4.008300
C -7.674000 1.107500 -2.538700
C -7.576800 0.291500 -1.427000
C -7.522300 -1.160900 -1.536900
C -7.407400 -1.795100 -2.758300
C -7.300200 -3.190600 -2.873200
C -7.048900 -3.792300 -4.188500
C -7.604100 -5.018900 -4.556400
C -7.283500 -5.609500 -5.761000
C -6.411100 -4.976100 -6.647000
C -5.894200 -3.722000 -6.308900
C -6.196700 -3.152500 -5.092000
C -7.364900 -3.960200 -1.733400
C -7.457200 -3.357700 -0.464200
C -7.446600 -4.149100 0.698100
C -7.431300 -3.571000 1.949500
C -7.373100 -4.397200 3.160900
C -6.705400 -5.625000 3.148300
C -6.656800 -6.426100 4.266800
C -7.251200 -6.002300 5.459200
C -7.889500 -4.762200 5.493900
C -7.965300 -3.984600 4.357600
C -7.445700 -2.169300 2.048500
C -7.497600 -1.348400 0.938300
C -7.485700 0.108200 1.047400
C -7.461000 0.756000 2.268500
C -7.492500 0.888100 -0.141100
C -7.504400 -1.942000 -0.352200
C -6.334100 3.781000 3.924700
C -6.245000 4.406400 5.149600
H -8.784100 2.825300 6.730300
H -8.925600 1.707500 4.558300
H -7.279600 3.987700 1.277900
H -7.325000 4.160500 -1.125800
H -9.542800 2.811800 -4.290200
H -9.477400 4.173900 -6.321100
H -5.435600 5.254700 -5.468600
H -5.536700 3.970700 -3.354000
H -7.805300 0.690000 -3.523100
H -7.402100 -1.220300 -3.668400
H -8.307100 -5.507700 -3.899700
H -7.742000 -6.541300 -6.048600
H -5.205900 -3.233500 -6.980000
H -5.742700 -2.212700 -4.821400
H -7.287800 -5.034900 -1.793400
H -7.467200 -5.221800 0.583900
H -6.209600 -5.948500 2.248000
H -6.117100 -7.360000 4.241400
H -8.373300 -4.448600 6.404500
H -8.521400 -3.061600 4.393000
H -7.383900 -1.741800 3.033700
H -7.478400 0.197300 3.188600
H -5.636700 4.038200 3.143600
H -5.478000 5.143500 5.314000
C -2.657600 -5.801100 -8.252700
C -1.769100 -5.379000 -9.247800
C -1.194600 -4.127700 -9.177400
C -1.494800 -3.262800 -8.124300
C -0.878500 -1.928600 -8.065000
C -1.653200 -0.802300 -7.913800
C -1.066500 0.476500 -7.957000
C -1.870400 1.630700 -7.919500
C -1.313100 2.883800 -8.057800
C -2.133000 4.100000 -8.056100
C -1.621300 5.297800 -7.546800
C -2.375700 6.449200 -7.534900
C -3.698700 6.428100 -7.991300
C -4.222300 5.234600 -8.491900
C -3.443300 4.098300 -8.542900
C 0.082300 2.991800 -8.185300
C 0.917000 1.893500 -8.141100
C 2.367700 2.028200 -8.182800
C 2.986300 3.258700 -8.090400
C 4.381700 3.400200 -8.122600
C 4.971100 4.728400 -7.903900
C 6.057800 5.188300 -8.647100
C 6.658900 6.395400 -8.348700
C 6.178700 7.181400 -7.301300
C 5.040500 6.764600 -6.608000
C 4.459700 5.548700 -6.896500
C 5.164800 2.279800 -8.281800
C 4.582800 0.997900 -8.318800
C 5.391100 -0.153700 -8.378700
C 4.830600 -1.404000 -8.269500
C 5.680800 -2.608500 -8.260300
C 6.495900 -2.896400 -9.354000
C 7.302800 -4.014300 -9.355100
C 7.327300 -4.864500 -8.243800
C 6.498000 -4.590500 -7.154400
C 5.683400 -3.476400 -7.167600
C 3.439300 -1.536400 -8.158000
C 2.597300 -0.440400 -8.194700
C 1.144600 -0.574400 -8.136400
C 0.514100 -1.803700 -8.182800
C 0.345200 0.597300 -8.065400
C 3.170100 0.858600 -8.244400
C -2.397200 -3.681000 -7.146300
C -2.974600 -4.932400 -7.206500
H -1.572700 -6.013000 -10.098900
H -0.526700 -3.804200 -9.961000
H -2.725400 -0.881800 -7.825900
H -2.933900 1.513400 -7.783900
H -0.629900 5.322300 -7.125500
H -1.974800 7.353400 -7.104400
H -5.229800 5.224500 -8.873900
H -3.854500 3.201900 -8.978400
H 0.495400 3.969900 -8.359800
H 2.402800 4.158800 -8.001900
H 6.428800 4.601300 -9.474100
H 7.477600 6.756000 -8.949800
H 4.663000 7.374500 -5.803400
H 3.618400 5.209900 -6.313600
H 6.240300 2.362400 -8.320900
H 6.461400 -0.042200 -8.466700
H 6.482300 -2.248600 -10.217600
H 7.882800 -4.253200 -10.233800
H 6.547400 -5.233600 -6.289300
H 5.063700 -3.252500 -6.313500
H 3.044100 -2.533800 -8.064800
H 1.083700 -2.710100 -8.299400
H -2.624100 -3.026600 -6.319900
H -3.641700 -5.267300 -6.428000
C -4.075700 -7.017800 7.139200
C -3.255500 -8.095300 6.788000
C -2.612000 -8.101900 5.567600
C -2.777200 -7.049200 4.665900
C -2.135600 -7.095200 3.342200
C -2.893100 -6.982500 2.200300
C -2.297000 -7.123900 0.932800
C -3.091500 -7.171700 -0.225800
C -2.533800 -7.442300 -1.459000
C -3.368900 -7.649700 -2.645500
C -2.882800 -7.415300 -3.936200
C -3.658100 -7.670700 -5.043800
C -4.966800 -8.146400 -4.920100
C -5.471900 -8.353800 -3.627700
C -4.682200 -8.120500 -2.525000
C -1.132800 -7.544500 -1.552300
C -0.304600 -7.408400 -0.455600
C 1.149600 -7.436300 -0.573700
C 1.789100 -7.386800 -1.798600
C 3.184600 -7.480100 -1.909500
C 3.809500 -7.505600 -3.242600
C 4.697000 -8.531300 -3.567600
C 5.287700 -8.586800 -4.812700
C 5.013700 -7.608200 -5.769400
C 4.118800 -6.582400 -5.451800
C 3.526500 -6.536400 -4.205100
C 3.948700 -7.584400 -0.770700
C 3.347900 -7.562500 0.502400
C 4.138900 -7.616300 1.665500
C 3.557100 -7.602900 2.913400
C 4.356700 -7.659000 4.143800
C 5.513600 -8.437900 4.214600
C 6.256000 -8.502500 5.374900
C 5.833900 -7.814900 6.512400
C 4.674800 -7.039200 6.457100
C 3.963600 -6.947300 5.279600
C 2.158000 -7.530600 3.010900
C 1.340400 -7.465700 1.900500
C -0.108000 -7.335500 2.016500
C -0.751000 -7.285400 3.240000
C -0.888000 -7.274500 0.832500
C 1.932600 -7.489000 0.609600
C -3.591100 -5.974400 5.022400
C -4.233500 -5.958000 6.241300
H -3.165300 -8.947900 7.443900
H -2.000500 -8.948600 5.294100
H -3.961300 -6.850800 2.269100
H -4.152900 -7.013000 -0.122500
H -1.893100 -7.014400 -4.078100
H -3.256700 -7.528900 -6.033600
H -6.492500 -8.669600 -3.478900
H -5.092200 -8.327500 -1.549200
H -0.705700 -7.782400 -2.510700
H 1.222900 -7.304300 -2.711000
H 4.901200 -9.308600 -2.847100
H 5.919900 -9.417800 -5.073800
H 3.927400 -5.802900 -6.172200
H 2.850600 -5.731300 -3.964000
H 5.023100 -7.660500 -0.836800
H 5.212400 -7.644700 1.561600
H 5.822300 -9.020500 3.361100
H 7.132400 -9.127400 5.431800
H 4.378900 -6.473600 7.326700
H 3.100900 -6.302000 5.237200
H 1.729200 -7.550900 3.997700
H -0.199600 -7.372500 4.160900
H -3.712100 -5.149800 4.338800
H -4.843400 -5.117400 6.530300
Zn 9.398500 7.920600 7.027500
C 13.859000 6.401700 8.219100
C 12.689200 5.784900 8.642200
C 11.472200 6.250600 8.153400
H 12.719600 4.958600 9.334600
N 11.397100 7.277600 7.289300
C 10.208600 5.625000 8.500400
C 12.514700 7.856700 6.881900
C 13.771300 7.452100 7.317800
H 12.404700 8.673000 6.184300
H 14.657200 7.953200 6.962900
H 14.817700 6.067500 8.583900
N 9.150500 5.980300 7.886000
H 10.217300 4.825700 9.237900
C 9.209900 9.196600 11.782900
C 8.104200 9.037200 10.964200
C 8.299500 8.769700 9.609000
H 7.105800 9.120100 11.363700
N 9.524100 8.644500 9.074300
C 7.185000 8.665200 8.698500
C 10.575700 8.829700 9.858300
C 10.472600 9.106900 11.214200
H 11.545800 8.769800 9.390100
H 11.361100 9.252500 11.806500
H 9.093600 9.401300 12.835700
N 7.350800 8.360700 7.464500
H 6.201000 8.877300 9.109300
C 9.656900 12.280200 4.887300
C 9.480700 11.088900 4.200600
C 9.477900 9.893100 4.916500
H 9.349300 11.085200 3.130400
N 9.635800 9.861100 6.250600
C 9.332600 8.612300 4.260300
C 9.810800 11.000400 6.899800
C 9.830100 12.235100 6.262800
H 9.943500 10.933700 7.968700
H 9.978800 13.135800 6.835900
H 9.664200 13.224800 4.366300
N 9.337900 7.526400 4.941500
H 9.260500 8.613000 3.175300
Zn -6.748600 -6.257600 8.642000
C -11.031700 -4.089400 9.457600
C -9.849100 -3.394300 9.252400
C -8.675500 -4.113400 9.034700
H -9.835800 -2.316100 9.264200
N -8.657900 -5.457600 9.013600
C -7.397800 -3.454700 8.848100
C -9.788300 -6.115800 9.209100
C -11.001000 -5.475800 9.436400
H -9.730900 -7.193100 9.184400
H -11.896400 -6.055300 9.592500
H -11.958400 -3.565100 9.630900
N -6.331200 -4.144600 8.695600
H -7.383200 -2.367700 8.888800
C -5.115100 -7.401100 13.068300
C -4.451600 -7.708500 11.890100
C -4.961700 -7.228100 10.685400
H -3.555700 -8.308700 11.902600
N -6.078100 -6.481200 10.635200
C -4.282400 -7.442000 9.425600
C -6.699200 -6.178600 11.763800
C -6.254600 -6.611800 13.006600
H -7.584200 -5.567200 11.674200
H -6.791500 -6.341000 13.901100
H -4.748300 -7.763400 14.016000
N -4.755900 -6.930400 8.350500
H -3.336900 -7.976300 9.455100
C -7.828400 -11.069700 8.637800
C -7.686000 -10.291400 7.500700
C -7.470700 -8.920600 7.643000
H -7.745200 -10.734700 6.519300
N -7.381100 -8.330900 8.845100
C -7.403300 -8.053400 6.491400
C -7.550800 -9.077300 9.925500
C -7.775000 -10.446300 9.876100
H -7.520500 -8.569600 10.877000
H -7.907200 -11.006400 10.787400
H -7.992100 -12.133400 8.563600
N -7.240200 -6.788900 6.612600
H -7.566000 -8.521000 5.523000
Zn -7.136100 6.850100 7.867200
C -7.665800 11.390700 9.579900
C -6.522200 10.627200 9.751500
C -6.479600 9.343600 9.206100
H -5.677600 11.015800 10.298600
N -7.511900 8.828100 8.518800
C -5.308900 8.507700 9.345400
C -8.599000 9.564200 8.355500
C -8.725800 10.849000 8.866600
H -9.405900 9.115600 7.797200
H -9.633000 11.409800 8.711200
H -7.730400 12.385100 9.993100
N -5.250200 7.360000 8.775700
H -4.485000 8.917900 9.923000
C -7.422400 4.560600 12.173900
C -7.244600 3.905100 10.966100
C -7.287200 4.644900 9.785600
H -7.073400 2.841000 10.937200
N -7.484700 5.973100 9.781900
C -7.169500 4.015500 8.490000
C -7.672500 6.589800 10.938000
C -7.652400 5.928600 12.158900
H -7.855400 7.652600 10.896500
H -7.817800 6.477100 13.072000
H -7.393900 4.021300 13.107800
N -7.038900 4.711300 7.422200
H -7.213100 2.929100 8.461500
C -11.529700 6.261500 5.853200
C -10.413500 6.705400 5.161100
C -9.213600 6.868100 5.851800
H -10.469800 6.924700 4.107000
N -9.108600 6.600900 7.164000
C -8.013500 7.334100 5.193400
C -10.178900 6.184900 7.822100
C -11.411600 5.998200 7.210300
H -10.047500 5.993900 8.876100
H -12.256300 5.658700 7.787400
H -12.473400 6.126100 5.348400
N -6.918200 7.471600 5.844500
H -8.091200 7.577500 4.136700
Zn 8.912100 8.558400 -6.335900
C 10.608600 8.356900 -10.878300
C 10.500800 7.260300 -10.036000
C 9.964600 7.441800 -8.762100
H 10.827500 6.284200 -10.358300
N 9.550800 8.644500 -8.329800
C 9.810100 6.340000 -7.834500
C 9.652400 9.686400 -9.138200
C 10.173800 9.593300 -10.422600
H 9.304300 10.631700 -8.750900
H 10.236000 10.468400 -11.048700
H 11.020600 8.250200 -11.869600
N 9.399100 6.540300 -6.638900
H 10.067700 5.346600 -8.195100
C 13.252100 9.629900 -4.317900
C 12.072300 9.502200 -3.601200
C 10.899100 9.189700 -4.286200
H 12.060700 9.640000 -2.531700
N 10.873900 9.009500 -5.617400
C 9.637000 9.036900 -3.597200
C 12.004500 9.129800 -6.294000
C 13.217700 9.438600 -5.691100
H 11.951200 8.981400 -7.361200
H 14.110100 9.529700 -6.288800
H 14.178000 9.874000 -3.821100
N 8.598000 8.620900 -4.220200
H 9.618700 9.264600 -2.534200
C 6.910600 12.981500 -5.833000
C 6.192700 11.838500 -6.150300
C 6.881700 10.643300 -6.345300
H 5.119500 11.871500 -6.249400
N 8.216700 10.562300 -6.222100
C 6.199200 9.424900 -6.725600
C 8.898200 11.660100 -5.934200
C 8.291200 12.892700 -5.730900
H 9.970300 11.556300 -5.862400
H 8.890000 13.758800 -5.500000
H 6.408400 13.923100 -5.674800
N 6.857800 8.349400 -6.935600
H 5.122500 9.480300 -6.869900
Zn 7.720000 -7.975400 -7.505500
C 8.167400 -12.520100 -5.858500
C 8.477300 -11.392100 -5.112000
C 8.240200 -10.135800 -5.665100
H 8.898200 -11.482900 -4.123300
N 7.719500 -9.987600 -6.896200
C 8.507000 -8.908600 -4.938300
C 7.416000 -11.066000 -7.600500
C 7.620900 -12.355200 -7.123000
H 6.990200 -10.895300 -8.577500
H 7.357100 -13.206600 -7.728900
H 8.343000 -13.507300 -5.460500
N 8.402900 -7.780700 -5.529200
H 8.790100 -8.990400 -3.891400
C 12.277900 -8.107300 -9.336500
C 11.468600 -6.982700 -9.327300
C 10.188100 -7.075900 -8.781600
H 11.820600 -6.049000 -9.737000
N 9.713600 -8.218400 -8.260700
C 9.307800 -5.931500 -8.754600
C 10.494200 -9.287200 -8.272100
C 11.779700 -9.284400 -8.797600
H 10.086100 -10.193300 -7.852800
H 12.372300 -10.184700 -8.786300
H 13.271600 -8.068700 -9.754700
N 8.156800 -5.984300 -8.193800
H 9.684400 -5.020700 -9.213800
C 5.454300 -7.668600 -11.780800
C 4.840900 -7.420600 -10.562400
C 5.550400 -7.667300 -9.389100
H 3.832700 -7.040900 -10.520600
N 6.812400 -8.128400 -9.403800
C 4.953100 -7.491000 -8.082400
C 7.385000 -8.385000 -10.569000
C 6.746700 -8.172000 -11.784400
H 8.390000 -8.778300 -10.538000
H 7.256000 -8.397700 -12.707300
H 4.938200 -7.483500 -12.709800
N 5.635400 -7.705400 -7.021100
H 3.897200 -7.231900 -8.046200
Zn -5.344800 -7.611100 -8.070300
C -5.069900 -5.544100 -12.497000
C -5.436100 -4.869400 -11.342900
C -5.537700 -5.582300 -10.149500
H -5.642100 -3.811300 -11.364500
N -5.282200 -6.898900 -10.083700
C -5.945500 -4.946500 -8.916600
C -4.945600 -7.540400 -11.191400
C -4.825700 -6.907800 -12.421600
H -4.766300 -8.600200 -11.096000
H -4.550100 -7.474000 -13.296500
H -4.981800 -5.022300 -13.437100
N -6.038800 -5.618600 -7.830700
H -6.202100 -3.890800 -8.964900
C -9.628700 -9.863500 -8.337100
C -8.810400 -9.873500 -7.219300
C -7.631100 -9.126200 -7.238500
H -9.078000 -10.448800 -6.346900
N -7.266300 -8.405400 -8.312000
C -6.764900 -9.063000 -6.084100
C -8.055800 -8.394600 -9.373200
C -9.247800 -9.103500 -9.434500
H -7.729300 -7.796700 -10.209800
H -9.860300 -9.063300 -10.320400
H -10.544900 -10.433000 -8.352900
N -5.710300 -8.327600 -6.077700
H -7.075700 -9.648900 -5.223700
C -2.913300 -11.737100 -9.210400
C -2.318600 -10.488900 -9.124400
C -3.105900 -9.387300 -8.789400
H -1.263800 -10.367800 -9.312700
N -4.422200 -9.494700 -8.544300
C -2.537000 -8.064700 -8.694600
C -4.981800 -10.691200 -8.628800
C -4.273300 -11.839500 -8.958400
H -6.040900 -10.750900 -8.433000
H -4.781900 -12.788000 -9.018100
H -2.335700 -12.610500 -9.469900
N -3.235800 -7.072300 -8.280000
H -1.489600 -7.956100 -8.963500
Zn 8.600800 -7.303600 7.934700
C 13.074400 -5.457800 8.574700
C 11.922400 -4.693900 8.474900
C 10.691200 -5.339800 8.370300
H 11.973500 -3.616900 8.481200
N 10.587900 -6.678400 8.352700
C 9.453400 -4.596100 8.311400
C 11.690600 -7.402100 8.467800
C 12.955400 -6.840000 8.580300
H 11.567300 -8.474300 8.476100
H 13.822300 -7.474100 8.671800
H 14.043400 -4.990600 8.654800
N 8.322600 -5.191900 8.230700
H 9.527700 -3.513700 8.387800
C 7.057600 -8.601500 12.363900
C 6.257800 -8.609900 11.230300
C 6.805800 -8.191800 10.019600
H 5.231800 -8.938500 11.281900
N 8.080400 -7.777900 9.919200
C 6.033200 -8.173700 8.792300
C 8.837400 -7.767500 11.003700
C 8.370900 -8.169800 12.249600
H 9.853200 -7.424500 10.879100
H 9.023700 -8.143700 13.107000
H 6.665900 -8.921800 13.316600
N 6.596000 -7.881900 7.682400
H 4.977900 -8.431300 8.855100
C 10.439800 -11.628900 6.577200
C 10.431400 -10.498200 5.774600
C 9.840200 -9.332800 6.259500
H 10.874100 -10.517700 4.791300
N 9.281200 -9.270800 7.479300
C 9.773100 -8.127600 5.461600
C 9.285500 -10.355500 8.236800
C 9.851600 -11.557800 7.831400
H 8.824100 -10.268400 9.208500
H 9.833300 -12.414000 8.485900
H 10.893000 -12.545600 6.233600
N 9.137500 -7.101800 5.887100
H 10.245600 -8.152300 4.482600
Zn -6.543400 7.622000 -7.231100
C -10.885400 8.084000 -5.055200
C -9.674700 8.085900 -4.381600
C -8.492400 8.050800 -5.119800
H -9.643300 8.113800 -3.304300
N -8.492300 8.004400 -6.461400
C -7.198900 8.098700 -4.479000
C -9.651900 8.022400 -7.099600
C -10.874100 8.062600 -6.442600
H -9.609000 8.011300 -8.177800
H -11.791400 8.080800 -7.008600
H -11.819400 8.108600 -4.516000
N -6.113100 7.930400 -5.140300
H -7.190600 8.292900 -3.408900
C -5.224600 12.261600 -7.942800
C -4.381600 11.176400 -8.125400
C -4.875000 9.893500 -7.891300
H -3.362000 11.319300 -8.446600
N -6.139300 9.679500 -7.491800
C -4.051200 8.719900 -8.074700
C -6.939300 10.718900 -7.319600
C -6.529300 12.029000 -7.532100
H -7.947900 10.502800 -7.002600
H -7.218200 12.844100 -7.380800
H -4.875200 13.267100 -8.118000
N -4.525900 7.545300 -7.880600
H -3.027500 8.882000 -8.403100
C -8.303700 6.683400 -11.697200
C -8.411600 5.807500 -10.628100
C -7.856700 6.170700 -9.401700
H -8.916400 4.860900 -10.740200
N -7.221000 7.341000 -9.225400
C -7.935800 5.302200 -8.247200
C -7.117700 8.170100 -10.251000
C -7.642600 7.887900 -11.505700
H -6.600800 9.100000 -10.071000
H -7.537600 8.597400 -12.310300
H -8.726400 6.434500 -12.658000
N -7.322300 5.605300 -7.164500
H -8.513900 4.387900 -8.354100
&END COORD

! Atom Basis Set
! --------------
&KIND C
  BASIS_SET DZVP-MOLOPT-GTH
  POTENTIAL GTH-PBE-q4
&END KIND
&KIND H
  BASIS_SET DZVP-MOLOPT-GTH
  POTENTIAL GTH-PBE-q1
&END KIND
&KIND N
  BASIS_SET DZVP-MOLOPT-GTH
  POTENTIAL GTH-PBE-q5
&END KIND
&KIND O
  BASIS_SET DZVP-MOLOPT-GTH
  POTENTIAL GTH-PBE-q6
&END KIND
&KIND Zn
  BASIS_SET  DZVP-MOLOPT-SR-GTH
  POTENTIAL  GTH-PBE-q12
&END KIND
&END SUBSYS
&END FORCE_EVAL

! Geometry Optimization
! ---------------------
&MOTION
  &GEO_OPT
    OPTIMIZER BFGS
    MAX_ITER 2000
    MAX_DR  [bohr] 0.003
    &BFGS
    &END
  &END GEO_OPT
&END MOTION

