&GLOBAL
  PROJECT_NAME C_cl1_quad2_12_s62_optc_opt
  RUN_TYPE GEO_OPT
  EXTENDED_FFT_LENGTHS
&END GLOBAL

! Force Evaluation
! ----------------
&FORCE_EVAL
  METHOD QS
  &DFT
    BASIS_SET_FILE_NAME BASIS_MOLOPT
    POTENTIAL_FILE_NAME GTH_POTENTIALS
    CHARGE 16
    &QS
      EPS_DEFAULT 1.0E-10
    &END QS
    &MGRID
      NGRIDS 5
     CUTOFF 700
     REL_CUTOFF 60
    &END MGRID
    &SCF
      SCF_GUESS ATOMIC
      EPS_SCF 5.0E-7
      MAX_SCF 300
      &OT
        PRECONDITIONER FULL_SINGLE_INVERSE
        MINIMIZER DIIS
      &END OT
      &OUTER_SCF ! Repeat the inner SCF cycle 10 times
        MAX_SCF 10
        EPS_SCF 5.0E-7 ! Must match the above
      &END
      &PRINT
        &RESTART ON
        FILENAME C_cl1_quad2_12_s62_optc_opt.res
      &END
      &END
    &END SCF

    ! Exchange-Correlation
    ! -------------------
    &XC
      &VDW_POTENTIAL
        POTENTIAL_TYPE PAIR_POTENTIAL
        &PAIR_POTENTIAL
          TYPE DFTD3
          CALCULATE_C9_TERM .TRUE.
          PARAMETER_FILE_NAME dftd3.dat
          REFERENCE_FUNCTIONAL PBE
          R_CUTOFF 10.
          EPS_CN 0.01
        &END PAIR_POTENTIAL
      &END VDW_POTENTIAL
      &XC_FUNCTIONAL PBE
      &END XC_FUNCTIONAL
    &END XC
  &END DFT
  &PRINT
    &FORCES ON
    &END FORCES
  &END PRINT

&SUBSYS
! Cell
! ----
&CELL
  ABC 57.23 57.23 57.23
  ALPHA_BETA_GAMMA 90.0 90.0 90.0
  PERIODIC NONE
&END CELL

! Coordinates
! -----------
&COORD
C 6.437700 4.221700 7.500000
C 6.158500 3.343000 8.552200
C 4.942700 2.693200 8.611300
C 3.973500 2.898600 7.628400
C 2.639900 2.289900 7.763900
C 1.519900 3.081400 7.643200
C 0.241100 2.561400 7.911600
C -0.887300 3.407800 7.903500
C -2.113900 2.931900 8.298800
C -3.314800 3.780800 8.394100
C -4.015300 3.850800 9.599500
C -5.183800 4.576500 9.700000
C -5.692600 5.241700 8.579200
C -4.986200 5.184500 7.376300
C -3.808500 4.471600 7.288300
C -2.250600 1.575900 8.627100
C -1.195100 0.688800 8.545000
C -1.369900 -0.735600 8.790000
C -2.621700 -1.299500 8.950000
C -2.802800 -2.671600 9.181300
C -4.146800 -3.251500 9.290200
C -4.381000 -4.320500 10.157800
C -5.606900 -4.947200 10.195100
C -6.646500 -4.488100 9.388900
C -6.446700 -3.382500 8.564500
C -5.201600 -2.788200 8.503400
C -1.692200 -3.478300 9.272500
C -0.402900 -2.950800 9.090800
C 0.714000 -3.797100 9.155200
C 1.973500 -3.322400 8.873600
C 3.050600 -4.331000 8.896500
C 3.740800 -4.701100 7.744000
C 4.554100 -5.818700 7.740800
C 4.685600 -6.593100 8.894500
C 4.069700 -6.172300 10.077600
C 3.262400 -5.055900 10.071400
C 2.149000 -1.969000 8.554400
C 1.086900 -1.075900 8.558200
C 1.251700 0.349700 8.272400
C 2.493200 0.929200 8.077300
C 0.098400 1.183600 8.232300
C -0.221400 -1.570100 8.817300
C 4.272500 3.751500 6.564100
C 5.484900 4.406500 6.498400
H 6.871000 3.226300 9.355300
H 4.727800 2.049200 9.450400
H 1.615600 4.129800 7.408100
H -0.762000 4.446900 7.641700
H -3.630100 3.342900 10.471100
H -5.681700 4.663500 10.654200
H -5.403500 5.661300 6.506600
H -3.281100 4.419400 6.349300
H -3.226600 1.241800 8.936500
H -3.503000 -0.682700 8.910400
H -3.599200 -4.658100 10.819800
H -5.784900 -5.765600 10.873700
H -7.253500 -3.043600 7.933300
H -5.040200 -1.973200 7.816200
H -1.792500 -4.539300 9.440400
H 0.567700 -4.840100 9.392600
H 3.598900 -4.139900 6.834200
H 5.034600 -6.149200 6.833800
H 4.239200 -6.713500 10.996700
H 2.772600 -4.748300 10.983100
H 3.147600 -1.636900 8.324000
H 3.391200 0.339000 8.154100
H 3.549100 3.888800 5.776400
H 5.730700 5.039000 5.662000
C 8.733400 5.834600 4.540300
C 9.844300 4.996900 4.498200
C 9.748800 3.772100 3.865200
C 8.578500 3.406700 3.206700
C 8.417800 2.067100 2.621300
C 8.552900 0.959300 3.418800
C 8.256800 -0.317700 2.911500
C 8.227300 -1.416200 3.778700
C 7.866000 -2.665800 3.328700
C 7.763000 -3.696000 4.377200
C 8.458800 -4.901400 4.358200
C 8.472100 -5.724800 5.471700
C 7.794300 -5.354100 6.633000
C 7.058900 -4.166200 6.641100
C 7.035400 -3.363700 5.524400
C 7.609600 -2.856800 1.962300
C 7.642000 -1.802600 1.059400
C 7.388300 -1.972900 -0.373400
C 7.262400 -3.219600 -0.964600
C 7.051400 -3.372600 -2.345600
C 7.009900 -4.694900 -2.990400
C 7.662300 -4.858200 -4.216400
C 7.617100 -6.054600 -4.895500
C 6.938300 -7.143800 -4.348400
C 6.307900 -7.003300 -3.110400
C 6.334300 -5.789100 -2.449400
C 6.927300 -2.250200 -3.134700
C 7.065000 -0.963200 -2.590400
C 7.021200 0.166000 -3.432800
C 7.209100 1.427200 -2.921000
C 7.271500 2.632900 -3.763100
C 8.091300 2.654800 -4.891000
C 8.251400 3.812300 -5.627400
C 7.594100 4.980500 -5.245500
C 6.756600 4.962900 -4.129900
C 6.594100 3.799000 -3.405800
C 7.434700 1.575200 -1.545200
C 7.506600 0.495400 -0.686700
C 7.829900 0.661500 0.722100
C 8.042200 1.908100 1.282400
C 7.915400 -0.492300 1.545200
C 7.313500 -0.814500 -1.199000
C 7.506700 4.296600 3.171200
C 7.567800 5.488400 3.859900
H 10.750600 5.283400 5.010700
H 10.593200 3.099600 3.873700
H 8.830900 1.060600 4.456700
H 8.483700 -1.264000 4.816000
H 9.036600 -5.175500 3.488600
H 9.073200 -6.619900 5.475000
H 6.492200 -3.900900 7.519500
H 6.459700 -2.452000 5.535900
H 7.350700 -3.850300 1.635500
H 7.373600 -4.114300 -0.374600
H 8.232300 -4.042100 -4.631300
H 8.148100 -6.177400 -5.824600
H 5.755100 -7.837300 -2.706400
H 5.808000 -5.682500 -1.514200
H 6.727200 -2.346400 -4.190600
H 6.845200 0.020600 -4.487600
H 8.640300 1.768700 -5.170300
H 8.936000 3.836800 -6.459900
H 6.218100 5.859500 -3.865700
H 5.934100 3.791100 -2.552800
H 7.606500 2.574100 -1.182900
H 7.948800 2.804300 0.693200
H 6.608700 4.026000 2.638700
H 6.739700 6.178700 3.860500
C -6.486600 8.154400 -4.654900
C -5.264600 8.584400 -5.173800
C -4.136600 8.621100 -4.370700
C -4.194100 8.191300 -3.046800
C -3.139500 8.376800 -2.037100
C -3.594400 8.819200 -0.813500
C -2.751700 8.850300 0.302700
C -3.309300 9.059200 1.574000
C -2.543000 8.903900 2.705200
C -3.183100 8.866600 4.022900
C -2.654600 9.482900 5.157100
C -3.277600 9.363700 6.383100
C -4.450300 8.606100 6.511800
C -4.993900 8.021300 5.366200
C -4.369800 8.140100 4.148800
C -1.171200 8.656300 2.563400
C -0.578500 8.484100 1.325600
C 0.838100 8.190500 1.186500
C 1.675200 8.164200 2.281600
C 3.042700 7.870300 2.179500
C 3.817000 7.810000 3.425500
C 5.087600 8.373000 3.545200
C 5.777000 8.310600 4.741300
C 5.202700 7.695400 5.856200
C 3.925000 7.136300 5.743100
C 3.253900 7.185500 4.542700
C 3.579300 7.635800 0.935400
C 2.763300 7.672200 -0.214400
C 3.326800 7.472500 -1.485500
C 2.550700 7.523400 -2.621900
C 3.210900 7.404900 -3.933500
C 4.388400 8.125500 -4.148200
C 5.070500 8.036200 -5.342200
C 4.582300 7.228000 -6.368500
C 3.400400 6.514200 -6.171100
C 2.730300 6.597600 -4.963700
C 1.167100 7.737100 -2.503400
C 0.559400 7.942000 -1.275100
C -0.876200 8.203600 -1.137400
C -1.770200 8.104200 -2.196200
C -1.379900 8.525100 0.155300
C 1.369900 7.931900 -0.104000
C -5.394000 7.635400 -2.582700
C -6.530600 7.645000 -3.352600
H -5.226400 8.960300 -6.183500
H -3.220300 9.032400 -4.764600
H -4.624700 9.111900 -0.684800
H -4.357100 9.306000 1.645900
H -1.763900 10.086800 5.072800
H -2.877000 9.900300 7.229000
H -5.898100 7.445100 5.458000
H -4.779900 7.645100 3.283600
H -0.598300 8.554700 3.468900
H 1.297200 8.408300 3.259000
H 5.531300 8.879200 2.702100
H 6.747200 8.770900 4.837600
H 3.498400 6.612800 6.583600
H 2.288500 6.713200 4.454800
H 4.627600 7.406200 0.822200
H 4.386100 7.280900 -1.557500
H 4.756800 8.788600 -3.380800
H 5.947600 8.638000 -5.513500
H 3.040700 5.866300 -6.955200
H 1.831800 6.019800 -4.814900
H 0.590000 7.785000 -3.412200
H -1.433700 7.778300 -3.166800
H -5.431000 7.206400 -1.594600
H -7.451000 7.232400 -2.969800
C -9.039500 5.013800 -5.704300
C -10.231900 4.303400 -5.512900
C -10.403800 3.531800 -4.385300
C -9.401200 3.441400 -3.415300
C -9.434700 2.349100 -2.431800
C -9.648400 1.095200 -2.957200
C -9.509500 -0.049700 -2.161400
C -9.606400 -1.320600 -2.752100
C -9.398800 -2.456300 -2.007200
C -9.438800 -3.779400 -2.641100
C -8.538600 -4.780600 -2.279000
C -8.571200 -6.016900 -2.892300
C -9.485000 -6.259300 -3.913600
C -10.391900 -5.269100 -4.282400
C -10.373600 -4.048600 -3.641300
C -9.130400 -2.327100 -0.636800
C -9.058700 -1.097500 -0.009000
C -8.795300 -0.975200 1.418000
C -8.668300 -2.084000 2.231800
C -8.444300 -1.981500 3.613000
C -8.382500 -3.215300 4.408100
C -9.071000 -3.320900 5.616800
C -9.066100 -4.499800 6.334300
C -8.373500 -5.614600 5.860300
C -7.674900 -5.510700 4.652800
C -7.676100 -4.327800 3.945900
C -8.329100 -0.733000 4.178100
C -8.449600 0.426000 3.386700
C -8.364200 1.694600 3.983100
C -8.561800 2.842400 3.246300
C -8.516300 4.147400 3.920200
C -8.962700 4.262400 5.240700
C -8.844000 5.445200 5.935900
C -8.315600 6.575600 5.313400
C -7.925400 6.490300 3.973600
C -8.005700 5.288600 3.298900
C -8.801400 2.730300 1.865000
C -8.849800 1.506300 1.220000
C -9.087500 1.386700 -0.219400
C -9.151600 2.484800 -1.064300
C -9.223800 0.084700 -0.777800
C -8.694000 0.319900 1.990800
C -8.283300 4.264700 -3.539700
C -8.108000 5.042500 -4.666200
H -11.021800 4.369400 -6.246200
H -11.318900 2.972500 -4.260800
H -9.863300 0.976000 -4.008000
H -9.807100 -1.379900 -3.810400
H -7.795300 -4.585900 -1.522900
H -7.867400 -6.787400 -2.622800
H -11.140200 -5.482500 -5.028200
H -11.111000 -3.306200 -3.904400
H -9.004100 -3.235700 -0.074200
H -8.787600 -3.073800 1.826300
H -9.646200 -2.482700 5.978800
H -9.651500 -4.586700 7.234100
H -7.095500 -6.350600 4.304500
H -7.110800 -4.254100 3.030400
H -8.142100 -0.622300 5.234900
H -8.137200 1.751800 5.036000
H -9.423800 3.418100 5.727300
H -9.199800 5.519700 6.949300
H -7.505100 7.357600 3.487600
H -7.642100 5.229700 2.285700
H -8.988100 3.636900 1.314400
H -9.002000 3.481400 -0.683500
H -7.516100 4.238900 -2.782200
H -7.206800 5.617700 -4.782500
C 4.934500 -5.864500 -7.630800
C 4.432800 -5.179400 -8.741500
C 3.273600 -4.441000 -8.628000
C 2.587600 -4.368700 -7.414600
C 1.364000 -3.550000 -7.328400
C 0.139600 -4.078900 -7.001200
C -1.019200 -3.276100 -7.046200
C -2.287400 -3.857000 -6.877100
C -3.432100 -3.100000 -6.984700
C -4.744200 -3.771600 -6.949100
C -5.815800 -3.326400 -6.176800
C -7.027700 -3.993900 -6.193300
C -7.189200 -5.135100 -6.978700
C -6.121300 -5.587800 -7.753300
C -4.920400 -4.910700 -7.738300
C -3.325500 -1.719100 -7.216500
C -2.100800 -1.097100 -7.397100
C -1.981500 0.327600 -7.714200
C -3.077300 1.177300 -7.788100
C -2.939900 2.522100 -8.156200
C -4.023700 3.521300 -8.225700
C -4.236400 4.207000 -9.424100
C -4.985000 5.363900 -9.457300
C -5.531500 5.868600 -8.272600
C -5.408000 5.128700 -7.096600
C -4.666700 3.965700 -7.071900
C -1.690200 3.034400 -8.415200
C -0.545900 2.238900 -8.270500
C 0.726000 2.814400 -8.424700
C 1.862900 2.065700 -8.235300
C 3.186600 2.692700 -8.328800
C 3.424300 3.684100 -9.282300
C 4.643100 4.324400 -9.350300
C 5.666100 3.963000 -8.477200
C 5.455300 2.948300 -7.547300
C 4.220600 2.336500 -7.463700
C 1.730200 0.699500 -7.945500
C 0.496900 0.085300 -7.833500
C 0.369000 -1.342100 -7.583700
C 1.462200 -2.185000 -7.628400
C -0.917800 -1.887200 -7.330800
C -0.684200 0.865800 -7.941900
C 3.091700 -5.055200 -6.311400
C 4.249700 -5.800000 -6.416000
H 4.924700 -5.268300 -9.698500
H 2.883100 -3.927500 -9.493700
H 0.038400 -5.128100 -6.772300
H -2.351700 -4.916300 -6.682000
H -5.697800 -2.457000 -5.549500
H -7.845000 -3.665200 -5.570300
H -6.262700 -6.432500 -8.407400
H -4.115700 -5.250400 -8.372000
H -4.241700 -1.159100 -7.304500
H -4.071500 0.816000 -7.584000
H -3.784400 3.840900 -10.333700
H -5.151500 5.873900 -10.394500
H -5.824400 5.538200 -6.193200
H -4.527600 3.432900 -6.144600
H -1.576500 4.071600 -8.691900
H 0.786100 3.867000 -8.653100
H 2.656700 3.940600 -9.995800
H 4.830000 5.063100 -10.112600
H 6.250100 2.685000 -6.868300
H 4.053200 1.586200 -6.707800
H 2.634700 0.127500 -7.830000
H 2.436100 -1.809300 -7.893500
H 2.579700 -4.991000 -5.364800
H 4.661600 -6.308900 -5.559000
C -5.263700 -7.651800 7.366400
C -4.527900 -8.759700 6.934000
C -3.842200 -8.710800 5.737000
C -3.876900 -7.564900 4.943600
C -3.273800 -7.577400 3.596100
C -4.096600 -7.440700 2.502700
C -3.583900 -7.561400 1.198200
C -4.452400 -7.539500 0.087500
C -3.956600 -7.672100 -1.187200
C -4.796300 -7.744400 -2.393500
C -4.440900 -7.037500 -3.543200
C -5.118300 -7.227700 -4.729300
C -6.192200 -8.116400 -4.785100
C -6.584400 -8.792000 -3.631100
C -5.888400 -8.609000 -2.450900
C -2.574300 -7.825000 -1.367900
C -1.691600 -7.888400 -0.309600
C -0.269200 -8.117700 -0.516400
C 0.263800 -8.338900 -1.773600
C 1.636600 -8.538300 -1.979800
C 2.198900 -8.744400 -3.317500
C 3.286300 -9.606200 -3.484000
C 3.936600 -9.694800 -4.693000
C 3.499100 -8.942200 -5.784000
C 2.351000 -8.157000 -5.653600
C 1.723400 -8.049000 -4.429900
C 2.481800 -8.494600 -0.895800
C 1.981200 -8.276100 0.396600
C 2.865900 -8.215800 1.479700
C 2.409300 -8.000500 2.761100
C 3.451200 -7.974700 3.798200
C 4.645900 -7.310600 3.498800
C 5.772400 -7.500500 4.263400
C 5.715400 -8.321200 5.392500
C 4.494300 -8.872400 5.779800
C 3.378300 -8.712700 4.978300
C 1.028600 -7.878700 2.983300
C 0.112900 -7.933800 1.941900
C -1.330100 -7.810700 2.149400
C -1.897400 -7.769100 3.411600
C -2.186300 -7.747100 1.014000
C 0.590400 -8.105700 0.613100
C -4.571800 -6.446100 5.404100
C -5.260200 -6.485600 6.599000
H -4.553200 -9.678000 7.501300
H -3.307600 -9.583700 5.394000
H -5.156900 -7.292400 2.635600
H -5.511100 -7.417000 0.255800
H -3.623000 -6.335700 -3.505200
H -4.850000 -6.674600 -5.615200
H -7.388800 -9.508100 -3.683200
H -6.169000 -9.176600 -1.577200
H -2.224000 -7.942100 -2.378700
H -0.377500 -8.398000 -2.635900
H 3.617400 -10.218600 -2.660000
H 4.759800 -10.377000 -4.821800
H 2.005900 -7.578600 -6.495500
H 0.878200 -7.388500 -4.322800
H 3.547100 -8.604500 -1.020900
H 3.916800 -8.372200 1.293900
H 4.691400 -6.660400 2.640200
H 6.697900 -7.004300 4.018100
H 4.452400 -9.493200 6.660400
H 2.461100 -9.215200 5.243100
H 0.698000 -7.713800 3.995500
H -1.288100 -7.871400 4.294400
H -4.571000 -5.542400 4.815800
H -5.786600 -5.618900 6.967100
Zn 7.950300 7.059400 7.293600
C 12.340500 5.074200 8.276700
C 11.175300 4.344800 8.105300
C 9.976300 5.026000 7.898500
H 11.191100 3.267000 8.130300
N 9.915600 6.366300 7.850000
C 8.722200 4.321800 7.766000
C 11.030700 7.057000 8.034100
C 12.264900 6.459500 8.250400
H 10.942400 8.132100 8.021300
H 13.141400 7.068900 8.399500
H 13.285700 4.579500 8.436900
N 7.639900 4.934000 7.459800
H 8.739700 3.250100 7.950000
C 6.199200 7.599100 11.800900
C 5.439900 7.725300 10.647800
C 6.062900 7.568900 9.410500
H 4.385800 7.945600 10.703800
N 7.373100 7.291500 9.303300
C 5.334600 7.714100 8.169600
C 8.094000 7.177500 10.407100
C 7.553200 7.323000 11.678400
H 9.144000 6.964200 10.278100
H 8.182200 7.223400 12.548100
H 5.749400 7.716000 12.774500
N 5.931600 7.597800 7.041300
H 4.277000 7.956300 8.241100
C 10.048100 11.395500 6.474200
C 10.187200 10.294800 5.640300
C 9.490300 9.129600 5.948400
H 10.819700 10.339400 4.767700
N 8.693900 9.036900 7.026800
C 9.548600 7.947900 5.107800
C 8.559600 10.091300 7.813900
C 9.214800 11.294200 7.578200
H 7.909100 9.975600 8.667300
H 9.079000 12.127200 8.248600
H 10.577600 12.312100 6.266100
N 8.729200 6.995600 5.322200
H 10.264000 7.933200 4.288700
Zn 7.342700 -8.192600 8.103400
C 5.725700 -12.432700 9.900200
C 5.042700 -11.229700 9.991500
C 5.596700 -10.093900 9.402100
H 4.099200 -11.170000 10.510600
N 6.769000 -10.129300 8.748100
C 4.921500 -8.816300 9.446400
C 7.411000 -11.282800 8.656700
C 6.932100 -12.460900 9.215800
H 8.347900 -11.274300 8.121400
H 7.494700 -13.375200 9.119100
H 5.327700 -13.328500 10.350700
N 5.389700 -7.797500 8.826300
H 3.982500 -8.774200 9.993500
C 8.628700 -6.478300 12.482900
C 8.510200 -5.700700 11.341400
C 8.192700 -6.320300 10.133900
H 8.664700 -4.634300 11.383200
N 7.988800 -7.643900 10.044300
C 8.098200 -5.569300 8.901600
C 8.116200 -8.382700 11.135100
C 8.434500 -7.847800 12.376600
H 7.963800 -9.445100 11.020300
H 8.528200 -8.492100 13.235800
H 8.872400 -6.031100 13.433900
N 7.866100 -6.149800 7.784900
H 8.279500 -4.498200 8.963500
C 11.462800 -9.916800 6.196700
C 10.286700 -9.733000 5.484600
C 9.179300 -9.202500 6.143800
H 10.227000 -10.000100 4.441400
N 9.219300 -8.860600 7.442400
C 7.918800 -8.978100 5.465500
C 10.344800 -9.033400 8.115500
C 11.493900 -9.558400 7.536500
H 10.334400 -8.742600 9.154800
H 12.389100 -9.681100 8.124100
H 12.338300 -10.328200 5.719100
N 6.884000 -8.592600 6.113600
H 7.887900 -9.160400 4.393100
Zn -8.109600 -7.161100 8.698400
C -12.554600 -5.594400 9.965100
C -11.409600 -4.813100 10.034600
C -10.198300 -5.361600 9.620900
H -11.453500 -3.802000 10.407400
N -10.106100 -6.618700 9.154700
C -8.956000 -4.610200 9.667500
C -11.201000 -7.357500 9.086000
C -12.449400 -6.889100 9.479300
H -11.082600 -8.359100 8.701500
H -13.315700 -7.526200 9.405200
H -13.508400 -5.201300 10.280500
N -7.856800 -5.190200 9.381400
H -9.002100 -3.565300 9.967200
C -6.810800 -9.025400 13.030100
C -5.978900 -8.981400 11.921800
C -6.453600 -8.403800 10.745200
H -4.980100 -9.385800 11.967100
N -7.692200 -7.892300 10.652300
C -5.629000 -8.311600 9.560000
C -8.479100 -7.932300 11.715300
C -8.085100 -8.487100 12.926400
H -9.465900 -7.510600 11.602000
H -8.763800 -8.499100 13.763600
H -6.474700 -9.468200 13.954700
N -6.044400 -7.688800 8.521900
H -4.642300 -8.765800 9.607400
C -8.728000 -11.565700 6.704900
C -8.645300 -10.387500 5.979900
C -8.544700 -9.178200 6.666500
H -8.660400 -10.402300 4.901900
N -8.517100 -9.120600 8.007900
C -8.498500 -7.915500 5.964900
C -8.614900 -10.248300 8.694800
C -8.720900 -11.494200 8.090200
H -8.614000 -10.162000 9.770500
H -8.798200 -12.382700 8.695500
H -8.804100 -12.519100 6.205900
N -8.398400 -6.804700 6.595400
H -8.599700 -7.953400 4.882600
Zn 6.363500 -8.653400 -7.109300
C 7.646400 -13.034200 -5.435200
C 7.640700 -11.885300 -4.657600
C 7.242200 -10.683100 -5.238500
H 7.942100 -11.919200 -3.622700
N 6.863100 -10.606400 -6.525900
C 7.224700 -9.439900 -4.491500
C 6.867700 -11.704900 -7.262600
C 7.251000 -12.943400 -6.761700
H 6.553200 -11.597300 -8.289500
H 7.238300 -13.813000 -7.398500
H 7.951000 -13.980900 -5.017100
N 6.921700 -8.341700 -5.071100
H 7.510200 -9.481100 -3.442400
C 10.609500 -7.282300 -9.080500
C 9.458700 -6.508800 -9.093300
C 8.322100 -6.982400 -8.440300
H 9.440300 -5.556600 -9.599100
N 8.307900 -8.164600 -7.802000
C 7.100600 -6.209100 -8.382300
C 9.412100 -8.893600 -7.784800
C 10.588200 -8.495600 -8.408200
H 9.361800 -9.833400 -7.256600
H 11.462400 -9.124800 -8.369500
H 11.504700 -6.947100 -9.580700
N 6.103400 -6.623500 -7.694600
H 7.090800 -5.253800 -8.901100
C 4.693300 -9.308300 -11.680000
C 3.882400 -9.168600 -10.564900
C 4.475400 -9.085900 -9.306200
H 2.809500 -9.129300 -10.665100
N 5.807900 -9.120200 -9.140600
C 3.684800 -9.010600 -8.098400
C 6.574400 -9.279000 -10.208000
C 6.066600 -9.378100 -11.496800
H 7.638200 -9.336900 -10.036100
H 6.734900 -9.508400 -12.332400
H 4.267700 -9.372700 -12.669200
N 4.255700 -8.977900 -6.954100
H 2.603500 -9.045200 -8.206600
Zn -7.218600 7.995400 8.021000
C -11.358700 6.560700 10.158900
C -10.203400 5.795400 10.113100
C -9.089800 6.297500 9.441400
H -10.164200 4.827600 10.587400
N -9.104600 7.498900 8.840400
C -7.859700 5.543000 9.338700
C -10.211100 8.222400 8.882100
C -11.364800 7.796700 9.528600
H -10.179400 9.179700 8.384900
H -12.242700 8.421800 9.539300
H -12.236900 6.203000 10.673400
N -6.882200 5.969900 8.628400
H -7.820000 4.591300 9.862700
C -5.254900 8.529200 12.481900
C -4.524500 8.491400 11.305700
C -5.205100 8.461800 10.088400
H -3.446500 8.488600 11.326000
N -6.546600 8.447800 10.021300
C -4.498200 8.499900 8.830900
C -7.237200 8.510600 11.149000
C -6.640000 8.554900 12.401500
H -8.311900 8.537000 11.057500
H -7.249200 8.610700 13.289000
H -4.760400 8.551300 13.440400
N -5.124600 8.423700 7.713600
H -3.419600 8.620000 8.883600
C -8.408400 12.478100 6.555500
C -8.624200 11.344100 5.787300
C -8.248000 10.103100 6.298700
H -9.079100 11.418300 4.812300
N -7.681800 9.975400 7.509700
C -8.462300 8.879600 5.555800
C -7.478000 11.060300 8.238700
C -7.824300 12.334000 7.805600
H -7.023900 10.911700 9.206500
H -7.641500 13.189500 8.435200
H -8.690400 13.453200 6.190000
N -8.146100 7.747000 6.060300
H -8.919200 8.967000 4.572500
Zn 7.314000 6.632000 -7.989600
C 9.189600 10.719500 -6.135400
C 8.996500 9.554500 -5.407500
C 8.433100 8.450400 -6.043800
H 9.280400 9.500500 -4.368500
N 8.070100 8.481700 -7.336700
C 8.208000 7.199600 -5.345000
C 8.252500 9.596900 -8.025800
C 8.808600 10.742400 -7.469000
H 7.944400 9.580800 -9.060200
H 8.937400 11.628300 -8.069400
H 9.625200 11.592300 -5.674900
N 7.804600 6.162600 -5.972600
H 8.421500 7.177000 -4.278000
C 11.563600 4.690300 -9.474800
C 10.376800 3.980100 -9.367100
C 9.230000 4.649200 -8.945500
H 10.339000 2.929900 -9.609500
N 9.236900 5.955300 -8.634400
C 7.950300 3.974400 -8.836300
C 10.371900 6.627200 -8.741100
C 11.560800 6.040200 -9.157400
H 10.339200 7.675900 -8.487700
H 12.460000 6.630300 -9.228700
H 12.470200 4.204000 -9.799300
N 6.895900 4.634600 -8.556200
H 7.923700 2.904900 -9.036100
C 5.470400 8.056600 -12.265600
C 4.728200 7.950300 -11.098700
C 5.371800 7.562500 -9.924900
H 3.671400 8.165100 -11.096700
N 6.686000 7.288500 -9.890700
C 4.662400 7.470000 -8.663500
C 7.390100 7.394500 -11.006400
C 6.828000 7.774900 -12.218700
H 8.443600 7.169900 -10.935400
H 7.442100 7.847900 -13.101500
H 5.003600 8.353800 -13.191600
N 5.287900 7.208400 -7.581100
H 3.596500 7.689300 -8.673100
Zn -8.853000 -7.875000 -6.562400
C -10.343100 -12.168300 -4.726300
C -10.272300 -10.989900 -3.997400
C -9.854400 -9.827200 -4.640300
H -10.541400 -10.970800 -2.953100
N -9.509900 -9.810600 -5.937900
C -9.791100 -8.553400 -3.948200
C -9.581900 -10.937200 -6.627900
C -9.993700 -12.140900 -6.067900
H -9.303300 -10.885600 -7.669400
H -10.037000 -13.032400 -6.672200
H -10.664700 -13.086700 -4.260700
N -9.510400 -7.489000 -4.590700
H -10.028200 -8.540200 -2.886100
C -13.036100 -5.972600 -8.153100
C -11.875000 -5.238100 -7.962600
C -10.724200 -5.897900 -7.535400
H -11.860200 -4.174900 -8.142500
N -10.707000 -7.220400 -7.302900
C -9.468400 -5.196400 -7.350900
C -11.817000 -7.917100 -7.488100
C -13.006900 -7.338500 -7.912500
H -11.759900 -8.977200 -7.291800
H -13.886200 -7.946600 -8.050100
H -13.944900 -5.493200 -8.481900
N -8.402800 -5.835800 -7.057000
H -9.464700 -4.122800 -7.528500
C -6.779400 -9.688700 -10.568400
C -6.112600 -9.498900 -9.366700
C -6.809300 -8.951800 -8.291300
H -5.075200 -9.774300 -9.262600
N -8.102000 -8.599100 -8.384800
C -6.176700 -8.727900 -7.005600
C -8.732200 -8.776800 -9.535200
C -8.113400 -9.318500 -10.655600
H -9.768400 -8.476000 -9.569600
H -8.667500 -9.444600 -11.571500
H -6.271800 -10.113100 -11.420300
N -6.862500 -8.348100 -5.996900
H -5.107500 -8.916700 -6.933000
Zn -8.051600 7.608400 -7.391500
C -12.340100 9.114000 -5.673500
C -11.168500 9.074100 -4.933300
C -9.994900 8.648900 -5.554300
H -11.162500 9.369300 -3.896100
N -9.967700 8.274100 -6.843200
C -8.736200 8.601500 -4.845000
C -11.087100 8.319700 -7.546200
C -12.298900 8.731800 -7.006500
H -11.018100 8.018400 -8.580200
H -13.185700 8.753100 -7.619100
H -13.266000 9.438200 -5.224500
N -7.656700 8.217100 -5.420600
H -8.745200 8.932000 -3.808600
C -6.398400 11.716600 -9.420900
C -5.761600 10.488700 -9.515900
C -6.315700 9.390900 -8.858600
H -4.854300 10.381100 -10.089000
N -7.445000 9.488000 -8.137900
C -5.694600 8.085500 -8.903600
C -8.043800 10.663900 -8.044800
C -7.559900 11.807500 -8.667700
H -8.946100 10.700000 -7.454000
H -8.084600 12.743600 -8.567100
H -5.999000 12.584500 -9.922100
N -6.157200 7.113300 -8.207900
H -4.806600 7.981000 -9.522200
C -9.271700 5.616000 -11.675700
C -9.315900 4.953400 -10.459900
C -9.040600 5.665700 -9.292800
H -9.560300 3.904300 -10.412300
N -8.719200 6.968700 -9.312800
C -9.133800 5.044300 -7.993000
C -8.700000 7.600600 -10.476000
C -8.970800 6.970800 -11.683100
H -8.467700 8.654000 -10.449200
H -8.948600 7.531800 -12.603200
H -9.478600 5.095000 -12.597500
N -8.771400 5.649000 -6.920700
H -9.545500 4.037900 -7.965900
&END COORD

! Atom Basis Set
! --------------
&KIND C
  BASIS_SET DZVP-MOLOPT-GTH
  POTENTIAL GTH-PBE-q4
&END KIND
&KIND H
  BASIS_SET DZVP-MOLOPT-GTH
  POTENTIAL GTH-PBE-q1
&END KIND
&KIND N
  BASIS_SET DZVP-MOLOPT-GTH
  POTENTIAL GTH-PBE-q5
&END KIND
&KIND O
  BASIS_SET DZVP-MOLOPT-GTH
  POTENTIAL GTH-PBE-q6
&END KIND
&KIND Zn
  BASIS_SET  DZVP-MOLOPT-SR-GTH
  POTENTIAL  GTH-PBE-q12
&END KIND
&END SUBSYS
&END FORCE_EVAL

! Geometry Optimization
! ---------------------
&MOTION
  &GEO_OPT
    OPTIMIZER BFGS
    MAX_ITER 2000
    MAX_DR  [bohr] 0.003
    &BFGS
    &END
  &END GEO_OPT
&END MOTION

