&GLOBAL
  PROJECT_NAME C_cl1_quad2_12_s41_optc_opt
  RUN_TYPE GEO_OPT
  EXTENDED_FFT_LENGTHS
&END GLOBAL

! Force Evaluation
! ----------------
&FORCE_EVAL
  METHOD QS
  &DFT
    BASIS_SET_FILE_NAME BASIS_MOLOPT
    POTENTIAL_FILE_NAME GTH_POTENTIALS
    CHARGE 16
    &QS
      EPS_DEFAULT 1.0E-10
    &END QS
    &MGRID
      NGRIDS 5
     CUTOFF 700
     REL_CUTOFF 60
    &END MGRID
    &SCF
      SCF_GUESS ATOMIC
      EPS_SCF 5.0E-7
      MAX_SCF 300
      &OT
        PRECONDITIONER FULL_SINGLE_INVERSE
        MINIMIZER DIIS
      &END OT
      &OUTER_SCF ! Repeat the inner SCF cycle 10 times
        MAX_SCF 10
        EPS_SCF 5.0E-7 ! Must match the above
      &END
      &PRINT
        &RESTART ON
        FILENAME C_cl1_quad2_12_s41_optc_opt.res
      &END
      &END
    &END SCF

    ! Exchange-Correlation
    ! -------------------
    &XC
      &VDW_POTENTIAL
        POTENTIAL_TYPE PAIR_POTENTIAL
        &PAIR_POTENTIAL
          TYPE DFTD3
          CALCULATE_C9_TERM .TRUE.
          PARAMETER_FILE_NAME dftd3.dat
          REFERENCE_FUNCTIONAL PBE
          R_CUTOFF 10.
          EPS_CN 0.01
        &END PAIR_POTENTIAL
      &END VDW_POTENTIAL
      &XC_FUNCTIONAL PBE
      &END XC_FUNCTIONAL
    &END XC
  &END DFT
  &PRINT
    &FORCES ON
    &END FORCES
  &END PRINT

&SUBSYS
! Cell
! ----
&CELL
  ABC 56.46 56.46 56.46
  ALPHA_BETA_GAMMA 90.0 90.0 90.0
  PERIODIC NONE
&END CELL

! Coordinates
! -----------
&COORD
C 6.716900 3.868300 7.933900
C 6.290200 2.953400 8.900900
C 5.106800 2.267400 8.721900
C 4.332200 2.478600 7.581600
C 2.973200 1.927100 7.497200
C 1.934400 2.799100 7.274300
C 0.603800 2.355500 7.331500
C -0.443400 3.286800 7.269300
C -1.753500 2.883900 7.397400
C -2.797400 3.904800 7.528200
C -3.884000 3.709800 8.383600
C -4.780300 4.727400 8.633800
C -4.576400 5.985700 8.070000
C -3.512300 6.185300 7.189800
C -2.658700 5.144700 6.899000
C -2.033500 1.512300 7.512200
C -1.034700 0.558000 7.572100
C -1.325300 -0.863700 7.731700
C -2.618200 -1.356700 7.748100
C -2.891400 -2.716800 7.952600
C -4.264600 -3.228800 8.020200
C -4.573200 -4.200800 8.974900
C -5.809800 -4.802400 8.992600
C -6.784300 -4.427700 8.066700
C -6.515700 -3.393400 7.169100
C -5.262100 -2.814200 7.138900
C -1.845600 -3.598100 8.103000
C -0.516100 -3.150400 8.065800
C 0.536100 -4.069400 8.216600
C 1.844100 -3.644500 8.188400
C 2.941800 -4.607000 8.283500
C 2.865200 -5.710400 9.137500
C 3.864100 -6.657800 9.166100
C 4.983300 -6.526600 8.331900
C 5.096400 -5.379200 7.542800
C 4.088200 -4.445600 7.502800
C 2.115800 -2.277800 8.019800
C 1.113500 -1.339100 7.877200
C 1.405800 0.077400 7.698900
C 2.698200 0.572400 7.720100
C 0.322500 0.978200 7.523900
C -0.240900 -1.768400 7.887700
C 4.805500 3.332700 6.583300
C 5.981200 4.027700 6.756900
H 6.840700 2.846600 9.823200
H 4.751700 1.605600 9.496900
H 2.126200 3.848400 7.118500
H -0.191400 4.332300 7.197000
H -4.008200 2.768600 8.894700
H -5.596300 4.585000 9.323500
H -3.395100 7.145600 6.713700
H -1.871400 5.299300 6.179900
H -3.067900 1.219400 7.563000
H -3.459800 -0.695000 7.635400
H -3.839500 -4.477700 9.715900
H -6.053200 -5.530900 9.747400
H -7.271500 -3.099800 6.458400
H -5.043100 -2.056800 6.403300
H -2.030100 -4.651800 8.240800
H 0.301600 -5.116600 8.327700
H 2.022100 -5.815500 9.802700
H 3.793300 -7.475500 9.866400
H 5.977600 -5.256900 6.936500
H 4.169500 -3.600300 6.838800
H 3.148000 -1.974600 8.031700
H 3.537500 -0.077600 7.899100
H 4.237900 3.454800 5.674900
H 6.357500 4.689400 5.992200
C 8.448200 6.219200 -5.774300
C 9.724600 5.800200 -5.386400
C 9.867800 4.675000 -4.602500
C 8.751600 3.944400 -4.189800
C 8.858300 3.003800 -3.058300
C 9.250600 3.597900 -1.881600
C 9.092100 2.925800 -0.661800
C 9.186100 3.649200 0.534400
C 8.814500 3.079800 1.731000
C 8.702100 3.981800 2.885900
C 9.215400 3.706600 4.151300
C 9.157200 4.655100 5.155500
C 8.595400 5.907900 4.908300
C 8.044000 6.176000 3.652800
C 8.084000 5.217300 2.668300
C 8.498700 1.713200 1.763100
C 8.470800 0.941700 0.611600
C 8.152400 -0.481800 0.628400
C 8.095600 -1.200200 1.807000
C 7.790300 -2.572400 1.840700
C 7.822800 -3.282600 3.126900
C 8.309900 -4.590000 3.212800
C 8.430800 -5.229900 4.429300
C 8.099400 -4.564000 5.610100
C 7.560500 -3.274400 5.530100
C 7.413700 -2.655400 4.307600
C 7.519600 -3.218400 0.654100
C 7.614400 -2.540300 -0.576200
C 7.429600 -3.237900 -1.786000
C 7.673500 -2.624800 -2.992500
C 7.600000 -3.420100 -4.236600
C 6.404800 -4.019000 -4.634800
C 6.362100 -4.829900 -5.750300
C 7.519500 -5.078100 -6.489400
C 8.711600 -4.452400 -6.115600
C 8.744300 -3.630900 -5.005000
C 8.029500 -1.268300 -3.019000
C 8.120800 -0.513300 -1.861500
C 8.447800 0.910100 -1.884200
C 8.463300 1.659100 -3.053100
C 8.688500 1.567400 -0.646100
C 7.952200 -1.159900 -0.605600
C 7.493200 4.307100 -4.669700
C 7.340400 5.429400 -5.458300
H 10.596200 6.354400 -5.702200
H 10.853200 4.374300 -4.279000
H 9.572800 4.628300 -1.872300
H 9.503900 4.679700 0.490300
H 9.701100 2.762100 4.340300
H 9.603900 4.458600 6.116000
H 7.554200 7.121000 3.479500
H 7.634300 5.420500 1.709900
H 8.227500 1.287600 2.714800
H 8.343800 -0.717800 2.737100
H 8.633000 -5.100400 2.319600
H 8.840400 -6.224800 4.485000
H 7.223900 -2.781200 6.429100
H 6.967300 -1.674800 4.264800
H 7.244600 -4.261700 0.646600
H 7.157100 -4.281700 -1.752900
H 5.505900 -3.834100 -4.068600
H 5.430700 -5.237400 -6.107700
H 9.620500 -4.653400 -6.663400
H 9.676900 -3.171200 -4.713300
H 8.233200 -0.823200 -3.979300
H 8.172300 1.216000 -3.991100
H 6.627000 3.737200 -4.374400
H 6.361600 5.757100 -5.769500
C -5.837000 8.793900 -5.147900
C -5.498200 10.016600 -4.559300
C -4.416700 10.089100 -3.709500
C -3.653400 8.953800 -3.428300
C -2.751200 8.946200 -2.266700
C -3.348200 9.264900 -1.070200
C -2.691700 8.995600 0.138700
C -3.429900 8.998000 1.326900
C -2.884500 8.516300 2.494600
C -3.886200 8.281700 3.554800
C -3.940800 8.931600 4.782000
C -5.048000 8.786000 5.604500
C -6.124700 7.994600 5.208300
C -6.065400 7.326500 3.983700
C -4.954200 7.457600 3.185400
C -1.520800 8.192800 2.530400
C -0.729700 8.248300 1.389000
C 0.701900 7.948000 1.393200
C 1.418900 7.786400 2.565800
C 2.805600 7.558000 2.568200
C 3.534000 7.418200 3.840700
C 4.736100 8.096000 4.051500
C 5.435000 7.961100 5.234600
C 4.949700 7.140600 6.253500
C 3.744000 6.460800 6.047000
C 3.051700 6.597800 4.862000
C 3.475200 7.471900 1.368200
C 2.790700 7.609800 0.145600
C 3.491200 7.518600 -1.075100
C 2.836600 7.674800 -2.275500
C 3.515500 7.627600 -3.579900
C 4.741300 8.262000 -3.788500
C 5.299900 8.331400 -5.049500
C 4.632000 7.782000 -6.145600
C 3.440600 7.080100 -5.933000
C 2.901400 6.999400 -4.667500
C 1.457800 7.943700 -2.264400
C 0.729700 8.043900 -1.095400
C -0.686400 8.387700 -1.103900
C -1.421000 8.507200 -2.274100
C -1.343000 8.562100 0.144200
C 1.391300 7.864900 0.150100
C -3.931000 7.765400 -4.104800
C -5.010300 7.684100 -4.960500
H -6.077200 10.901700 -4.776900
H -4.172600 11.028000 -3.235700
H -4.370000 9.611700 -1.042200
H -4.462500 9.311400 1.295700
H -3.140900 9.592200 5.080400
H -5.114100 9.348200 6.522200
H -6.886800 6.694600 3.686700
H -4.910200 6.939500 2.240900
H -1.107700 7.856000 3.466700
H 0.927600 7.884800 3.519700
H 5.111600 8.760800 3.288400
H 6.332800 8.532800 5.404100
H 3.386200 5.787600 6.809800
H 2.138100 6.045300 4.708600
H 4.537000 7.280900 1.350400
H 4.550000 7.311000 -1.052100
H 5.240800 8.746600 -2.964200
H 6.219600 8.869900 -5.210900
H 2.968100 6.577300 -6.762300
H 1.991600 6.441500 -4.512900
H 0.982000 8.123800 -3.213100
H -0.978200 8.280300 -3.229000
H -3.334500 6.889500 -3.905500
H -5.280400 6.749800 -5.428000
C -7.748900 4.464400 6.123500
C -8.839000 3.745300 5.622900
C -8.762300 3.144900 4.384000
C -7.602700 3.236600 3.610400
C -7.559400 2.555300 2.303100
C -7.213600 3.205700 1.141300
C -7.317400 2.553700 -0.106100
C -7.122000 3.271700 -1.301100
C -7.317300 2.676100 -2.529100
C -7.257600 3.467300 -3.770400
C -6.713100 2.956500 -4.951800
C -6.760600 3.678100 -6.127500
C -7.338900 4.952100 -6.157800
C -7.822100 5.496900 -4.966500
C -7.791900 4.759300 -3.800900
C -7.649100 1.309400 -2.576300
C -7.825100 0.551300 -1.431500
C -8.232800 -0.853000 -1.481600
C -8.241900 -1.599000 -2.652600
C -8.743400 -2.908500 -2.686300
C -8.659500 -3.849700 -3.818800
C -9.805900 -4.530200 -4.238300
C -9.710800 -5.660100 -5.021700
C -8.453500 -6.133200 -5.409700
C -7.314100 -5.388500 -5.096600
C -7.418500 -4.263400 -4.302500
C -9.255900 -3.466600 -1.537500
C -9.120200 -2.809500 -0.307400
C -9.393300 -3.503700 0.881100
C -9.013900 -2.978800 2.094500
C -9.058900 -3.896900 3.243000
C -10.226300 -4.609000 3.525200
C -10.213800 -5.656600 4.420100
C -9.021200 -6.014200 5.056900
C -7.872200 -5.249200 4.847800
C -7.893500 -4.204000 3.946600
C -8.508300 -1.672600 2.147800
C -8.373900 -0.897500 1.006900
C -7.972400 0.502200 1.052700
C -7.941200 1.206100 2.241100
C -7.693600 1.183600 -0.162900
C -8.591900 -1.494800 -0.263500
C -6.524300 3.966400 4.110100
C -6.594800 4.579300 5.347500
H -9.758200 3.701900 6.188100
H -9.620300 2.613400 4.000800
H -6.926800 4.245600 1.160900
H -6.833000 4.309400 -1.239300
H -6.240500 1.987100 -4.944600
H -6.317100 3.282900 -7.028100
H -8.276200 6.474200 -4.983100
H -8.227000 5.178800 -2.907700
H -7.828500 0.869500 -3.543400
H -7.866800 -1.180000 -3.571600
H -10.778500 -4.185900 -3.919500
H -10.604700 -6.177300 -5.337900
H -6.350600 -5.754300 -5.412900
H -6.527700 -3.733400 -4.006400
H -9.667400 -4.464700 -1.551800
H -9.803200 -4.500500 0.819800
H -11.146900 -4.347100 3.025800
H -11.126300 -6.189200 4.642700
H -6.958900 -5.538300 5.344600
H -6.989100 -3.653500 3.740700
H -8.234500 -1.279600 3.112700
H -8.218600 0.725300 3.164400
H -5.616800 4.038400 3.532500
H -5.750100 5.116700 5.747800
C -6.341400 -4.793300 -8.131800
C -6.610400 -3.604800 -7.448000
C -5.604600 -2.689300 -7.241200
C -4.322100 -2.894700 -7.758400
C -3.314400 -1.835000 -7.667900
C -3.722500 -0.522000 -7.726800
C -2.786300 0.522300 -7.732800
C -3.232000 1.847000 -7.832300
C -2.339200 2.892000 -7.878800
C -2.890100 4.243500 -8.031700
C -2.472400 5.330300 -7.266800
C -3.143500 6.537200 -7.334000
C -4.268000 6.662900 -8.150700
C -4.635500 5.604600 -8.982900
C -3.945100 4.418000 -8.931700
C -0.966500 2.622800 -7.798300
C -0.478800 1.328500 -7.718700
C 0.950300 1.032800 -7.714900
C 1.908500 2.029000 -7.754500
C 3.282600 1.749100 -7.842200
C 4.279000 2.813500 -7.992500
C 5.578800 2.637100 -7.508800
C 6.561100 3.570500 -7.749200
C 6.253500 4.749600 -8.432900
C 4.948000 4.957900 -8.878900
C 3.983500 3.993400 -8.679600
C 3.689700 0.433800 -7.855200
C 2.755000 -0.611100 -7.788400
C 3.198900 -1.941300 -7.836200
C 2.300900 -2.983800 -7.815000
C 2.814400 -4.353600 -7.912800
C 3.875700 -4.607800 -8.786300
C 4.499600 -5.832600 -8.794800
C 4.055700 -6.852000 -7.948900
C 2.928600 -6.640200 -7.150000
C 2.327100 -5.396700 -7.125100
C 0.930500 -2.705700 -7.716000
C 0.447100 -1.409600 -7.675200
C -0.980900 -1.114900 -7.640300
C -1.938800 -2.112300 -7.607900
C -1.396100 0.243500 -7.689800
C 1.366100 -0.326700 -7.719000
C -4.062100 -4.088200 -8.435200
C -5.050200 -5.034900 -8.602200
H -7.595900 -3.432600 -7.045900
H -5.816000 -1.801300 -6.668800
H -4.766200 -0.270700 -7.826000
H -4.293300 2.032900 -7.869800
H -1.645000 5.215700 -6.585100
H -2.852400 7.361300 -6.702500
H -5.437500 5.743400 -9.687800
H -4.221800 3.614600 -9.596500
H -0.294700 3.462600 -7.848100
H 1.614200 3.063200 -7.715100
H 5.822800 1.759000 -6.933800
H 7.559200 3.420100 -7.369800
H 4.724200 5.847500 -9.444500
H 3.001000 4.143000 -9.098300
H 4.730800 0.177100 -7.968200
H 4.259900 -2.131400 -7.880200
H 4.212200 -3.836600 -9.460600
H 5.313800 -6.029000 -9.471700
H 2.583900 -7.426900 -6.497800
H 1.501200 -5.217700 -6.455600
H 0.255100 -3.543600 -7.718200
H -1.644100 -3.144400 -7.534400
H -3.091600 -4.260300 -8.872700
H -4.857900 -5.934700 -9.163200
C -5.320200 -7.620700 6.388000
C -4.037900 -7.061900 6.379200
C -3.287500 -7.051300 5.220500
C -3.779600 -7.614900 4.041100
C -2.985800 -7.669400 2.802800
C -3.592300 -7.452000 1.584500
C -2.882600 -7.612700 0.380800
C -3.544600 -7.471600 -0.855800
C -2.882300 -7.707500 -2.038600
C -3.552000 -7.666800 -3.347600
C -2.912900 -7.113700 -4.460200
C -3.471900 -7.202400 -5.717400
C -4.703800 -7.841400 -5.895000
C -5.384700 -8.325600 -4.776300
C -4.810400 -8.245000 -3.524100
C -1.526700 -8.073100 -1.996600
C -0.833400 -8.210200 -0.809600
C 0.553000 -8.658300 -0.781500
C 1.319800 -8.786400 -1.927300
C 2.627100 -9.295700 -1.893300
C 3.548500 -9.232100 -3.034300
C 4.461300 -10.259700 -3.284400
C 5.518700 -10.071200 -4.148100
C 5.678900 -8.845000 -4.802200
C 4.707000 -7.858500 -4.642100
C 3.660500 -8.047600 -3.764700
C 3.148800 -9.716100 -0.691300
C 2.458000 -9.468900 0.504900
C 3.130300 -9.612400 1.726100
C 2.608400 -9.066000 2.877900
C 3.610300 -8.904300 3.947400
C 4.009600 -7.620100 4.320700
C 5.217900 -7.418800 4.955100
C 6.051600 -8.501300 5.240900
C 5.594300 -9.799400 4.992900
C 4.387600 -9.991800 4.354800
C 1.300800 -8.558000 2.865900
C 0.532900 -8.557100 1.709200
C -0.871200 -8.149200 1.679800
C -1.618900 -7.999600 2.835200
C -1.510700 -7.983100 0.418900
C 1.153400 -8.915600 0.480200
C -5.070100 -8.153300 4.055500
C -5.835600 -8.146200 5.201700
H -3.662400 -6.595700 7.276900
H -2.312600 -6.589900 5.224600
H -4.631200 -7.163700 1.537200
H -4.584100 -7.181800 -0.857600
H -1.970100 -6.606300 -4.331900
H -2.981500 -6.752400 -6.566200
H -6.331400 -8.822200 -4.911900
H -5.324100 -8.675900 -2.679200
H -1.047200 -8.307400 -2.931700
H 0.923000 -8.497600 -2.885700
H 4.351300 -11.209300 -2.783000
H 6.215700 -10.875100 -4.333500
H 4.837900 -6.919200 -5.149100
H 2.957300 -7.248800 -3.591000
H 4.147300 -10.121900 -0.636100
H 4.123900 -10.034500 1.725100
H 3.405700 -6.773400 4.035800
H 5.579400 -6.421600 5.136200
H 6.190300 -10.648000 5.295700
H 4.060500 -10.996400 4.130800
H 0.903400 -8.164100 3.787100
H -1.169900 -8.196000 3.795100
H -5.467000 -8.613300 3.164400
H -6.814300 -8.597700 5.209500
Zn 7.798300 6.783000 7.859200
C 12.231500 5.595900 9.659300
C 11.192300 4.695900 9.483000
C 9.988300 5.153800 8.950200
H 11.311700 3.658400 9.752300
N 9.801700 6.438200 8.602600
C 8.869300 4.265400 8.729700
C 10.799400 7.289800 8.771500
C 12.031800 6.919300 9.295100
H 10.617200 8.314500 8.487100
H 12.811700 7.653400 9.416500
H 13.175400 5.276000 10.072200
N 7.823800 4.688400 8.123200
H 8.972900 3.236300 9.063500
C 5.612700 6.728400 12.222400
C 4.932500 6.796100 11.017000
C 5.663700 6.862100 9.831500
H 3.854400 6.799600 10.993300
N 7.006300 6.852000 9.821900
C 5.005100 6.977800 8.550100
C 7.650400 6.802800 10.977900
C 6.999900 6.740200 12.203000
H 8.728200 6.819900 10.931800
H 7.571300 6.704300 13.116300
H 5.078200 6.675300 13.157900
N 5.665100 7.023100 7.452700
H 3.921100 7.067200 8.571100
C 8.985100 11.446600 7.235200
C 9.178200 10.457000 6.282700
C 8.740400 9.163100 6.560600
H 9.662300 10.680900 5.345200
N 8.136700 8.848800 7.718600
C 8.890400 8.085500 5.604500
C 7.949900 9.797500 8.621100
C 8.354900 11.112100 8.425200
H 7.456600 9.502800 9.534600
H 8.180600 11.853700 9.187700
H 9.314900 12.457400 7.052700
N 8.552300 6.887500 5.904400
H 9.297000 8.340800 4.628000
Zn 7.976300 -7.248300 7.476200
C 7.605400 -11.905800 8.996800
C 6.550100 -11.013000 8.917900
C 6.812700 -9.683100 8.586300
H 5.539700 -11.335200 9.114100
N 8.054000 -9.246600 8.320400
C 5.760800 -8.697600 8.560200
C 9.060600 -10.100300 8.426900
C 8.890100 -11.436200 8.760900
H 10.049100 -9.705600 8.250200
H 9.744000 -12.089400 8.837200
H 7.436100 -12.941100 9.248800
N 5.994300 -7.473700 8.249600
H 4.769500 -9.048000 8.833700
C 9.645300 -4.944100 11.418100
C 9.459800 -4.327100 10.190900
C 8.963000 -5.079200 9.126900
H 9.698400 -3.283900 10.057800
N 8.660400 -6.381200 9.255700
C 8.758700 -4.495800 7.820100
C 8.834800 -6.963900 10.430600
C 9.324400 -6.288200 11.541300
H 8.579400 -8.010200 10.494400
H 9.452100 -6.807700 12.477100
H 10.031100 -4.393400 12.261700
N 8.309400 -5.194300 6.842600
H 9.022300 -3.447200 7.701100
C 12.053800 -8.889500 5.398100
C 10.775000 -9.232500 4.986200
C 9.683400 -8.629400 5.608500
H 10.623300 -9.952600 4.197800
N 9.835600 -7.728400 6.592900
C 8.323800 -8.907400 5.200800
C 11.058200 -7.397000 6.975200
C 12.199500 -7.949300 6.408100
H 11.131700 -6.665000 7.764800
H 13.176400 -7.652600 6.753800
H 12.918900 -9.343600 4.940700
N 7.346300 -8.245900 5.699400
H 8.177700 -9.652500 4.422400
Zn -8.166000 -7.248500 7.859000
C -12.717100 -5.483300 8.280600
C -11.590500 -4.697500 8.092700
C -10.337000 -5.304300 8.110800
H -11.679600 -3.634200 7.937500
N -10.187300 -6.627400 8.289000
C -9.111600 -4.540800 8.003600
C -11.264700 -7.368000 8.490500
C -12.551000 -6.843600 8.495700
H -11.101900 -8.421800 8.659200
H -13.397300 -7.489000 8.666100
H -13.704000 -5.047600 8.268400
N -7.985100 -5.139700 8.073000
H -9.193300 -3.458400 7.937200
C -6.510300 -8.509600 12.230400
C -5.729900 -8.492600 11.083800
C -6.303300 -8.069200 9.885800
H -4.697700 -8.803600 11.115700
N -7.587900 -7.678700 9.813600
C -5.544000 -8.017200 8.653300
C -8.327200 -7.691600 10.910600
C -7.832400 -8.097400 12.144100
H -9.349800 -7.363300 10.804200
H -8.469800 -8.089900 13.013200
H -6.097300 -8.833700 13.173000
N -6.097800 -7.681100 7.548000
H -4.493500 -8.293900 8.708900
C -9.975000 -11.680500 6.846300
C -10.100600 -10.576100 6.018400
C -9.492300 -9.379100 6.394700
H -10.660500 -10.637600 5.098600
N -8.788300 -9.261800 7.532500
C -9.572500 -8.199600 5.564800
C -8.663100 -10.324000 8.311700
C -9.237400 -11.553200 8.014400
H -8.086500 -10.198100 9.215000
H -9.111400 -12.387100 8.685600
H -10.439900 -12.619100 6.588000
N -8.930700 -7.135800 5.879000
H -10.161900 -8.271200 4.654300
Zn -7.487900 7.093800 7.985800
C -6.359600 11.446700 9.888400
C -5.437800 10.444300 9.625100
C -5.889100 9.245700 9.076600
H -4.391500 10.587000 9.844600
N -7.184700 9.033100 8.792800
C -4.988600 8.149000 8.781900
C -8.058500 9.993500 9.044300
C -7.695200 11.217900 9.591900
H -9.089500 9.784300 8.803000
H -8.442800 11.971500 9.779100
H -6.045000 12.386500 10.314700
N -5.453600 7.026500 8.384500
H -3.923700 8.311900 8.933700
C -8.836400 4.753000 12.036500
C -8.806500 4.173600 10.777100
C -8.381500 4.940200 9.693000
H -9.105000 3.147000 10.636200
N -8.002600 6.221700 9.832200
C -8.299400 4.385700 8.358900
C -8.029500 6.768100 11.037200
C -8.437300 6.074800 12.170200
H -7.718000 7.798900 11.108200
H -8.443900 6.564100 13.130600
H -9.161900 4.188700 12.896400
N -7.790000 5.054600 7.392100
H -8.649900 3.364600 8.226700
C -12.018500 7.990800 6.412400
C -10.878200 8.134300 5.636600
C -9.636700 7.858700 6.206500
H -10.947600 8.460000 4.610900
N -9.511000 7.447500 7.477700
C -8.409500 8.023300 5.457500
C -10.603000 7.316800 8.214900
C -11.877800 7.577300 7.729000
H -10.462000 6.996200 9.235800
H -12.736300 7.458900 8.370100
H -12.994700 8.199000 6.003000
N -7.268000 7.861600 6.010300
H -8.504400 8.324000 4.416000
Zn 7.122100 7.789400 -8.196300
C 8.912000 12.116000 -6.900000
C 9.263700 10.913900 -6.305300
C 8.608500 9.749300 -6.702500
H 10.032100 10.876500 -5.549400
N 7.648000 9.758100 -7.641400
C 8.896200 8.469400 -6.093500
C 7.306500 10.910600 -8.194800
C 7.908300 12.116400 -7.858200
H 6.523700 10.874500 -8.937000
H 7.600800 13.030900 -8.338700
H 9.406600 13.033000 -6.620300
N 8.220300 7.432400 -6.422500
H 9.656700 8.445600 -5.317000
C 11.590500 6.992600 -10.076100
C 10.679200 5.998300 -9.759500
C 9.407700 6.364400 -9.319800
H 10.944500 4.957300 -9.854200
N 9.042800 7.648400 -9.179200
C 8.393800 5.376800 -9.033400
C 9.910500 8.592300 -9.508500
C 11.193800 8.317300 -9.960900
H 9.572900 9.613400 -9.417300
H 11.862600 9.123200 -10.216200
H 12.584200 6.744500 -10.415100
N 7.215600 5.729100 -8.676600
H 8.661900 4.334300 -9.188200
C 4.422600 9.078600 -12.021000
C 3.915700 8.882300 -10.745200
C 4.788000 8.502200 -9.726400
H 2.866000 9.022900 -10.542100
N 6.101300 8.317800 -9.945200
C 4.328300 8.292000 -8.369400
C 6.579200 8.503500 -11.164500
C 5.779200 8.884300 -12.235400
H 7.637700 8.342600 -11.298200
H 6.214500 9.023900 -13.211500
H 3.777300 9.375100 -12.833000
N 5.144300 7.972000 -7.433700
H 3.268000 8.443400 -8.177600
Zn 6.911300 -8.043200 -7.651700
C 8.312600 -6.946900 -12.164100
C 8.439400 -6.083400 -11.085800
C 7.954200 -6.484800 -9.842400
H 8.904800 -5.117800 -11.205300
N 7.369000 -7.681500 -9.661100
C 8.021800 -5.619400 -8.681900
C 7.243100 -8.498100 -10.694100
C 7.698600 -8.175200 -11.966500
H 6.762300 -9.444900 -10.502100
H 7.577600 -8.872300 -12.779600
H 8.682900 -6.667700 -13.138100
N 7.445800 -5.944500 -7.586100
H 8.536900 -4.669000 -8.803400
C 11.516600 -9.000400 -6.217300
C 10.401000 -9.108300 -5.403100
C 9.144200 -8.825800 -5.937500
H 10.498300 -9.407500 -4.371600
N 8.978900 -8.444000 -7.213800
C 7.945700 -8.960500 -5.144100
C 10.049500 -8.351700 -7.987500
C 11.336000 -8.619800 -7.539100
H 9.885700 -8.060300 -9.013200
H 12.172200 -8.536100 -8.214100
H 12.502900 -9.214200 -5.836200
N 6.804800 -8.581900 -5.586600
H 8.056500 -9.400200 -4.155600
C 5.464600 -12.721400 -7.826300
C 4.597700 -11.641000 -7.769500
C 5.126400 -10.352600 -7.807200
H 3.532400 -11.792800 -7.701300
N 6.448900 -10.126900 -7.885700
C 4.283800 -9.175900 -7.811400
C 7.270000 -11.161900 -7.949800
C 6.826900 -12.478100 -7.924900
H 8.322900 -10.936900 -8.027200
H 7.535100 -13.288700 -7.983300
H 5.089800 -13.732800 -7.800000
N 4.817900 -8.017000 -7.901400
H 3.207100 -9.324200 -7.793400
Zn -7.253900 -7.798100 -7.857900
C -9.158900 -12.022900 -6.429800
C -9.456000 -10.797400 -5.853300
C -8.766000 -9.665700 -6.284700
H -10.208900 -10.717300 -5.085200
N -7.823600 -9.728400 -7.239800
C -8.992500 -8.365200 -5.694100
C -7.533500 -10.903200 -7.775400
C -8.172700 -12.079200 -7.404300
H -6.762800 -10.909900 -8.531000
H -7.907300 -13.013700 -7.871200
H -9.681700 -12.915500 -6.123600
N -8.282200 -7.360600 -6.050900
H -9.736000 -8.299200 -4.903700
C -11.762900 -6.940100 -9.619300
C -10.825200 -5.959900 -9.337800
C -9.549500 -6.345700 -8.928200
H -11.073600 -4.915200 -9.437000
N -9.205000 -7.634900 -8.782900
C -8.509600 -5.376100 -8.676900
C -10.098300 -8.565500 -9.079500
C -11.387900 -8.270900 -9.500600
H -9.777400 -9.591900 -8.987000
H -12.077900 -9.066800 -9.729500
H -12.760500 -6.677100 -9.934800
N -7.329500 -5.751400 -8.350700
H -8.761000 -4.329300 -8.828700
C -4.726400 -9.213600 -11.759100
C -4.170800 -9.024700 -10.502500
C -4.994700 -8.605300 -9.459200
H -3.120400 -9.200500 -10.333000
N -6.307500 -8.377300 -9.635700
C -4.482300 -8.397300 -8.120900
C -6.831800 -8.556600 -10.836700
C -6.081800 -8.973700 -11.930100
H -7.888000 -8.360600 -10.937200
H -6.554000 -9.105900 -12.889900
H -4.118400 -9.538600 -12.588800
N -5.255100 -8.030700 -7.165900
H -3.423500 -8.589800 -7.960700
Zn -7.188800 7.762500 -7.803700
C -11.649400 9.363800 -6.603300
C -10.501500 9.612100 -5.867400
C -9.299800 9.037300 -6.279600
H -10.533100 10.240000 -4.991100
N -9.218500 8.253500 -7.367300
C -8.075300 9.232200 -5.538900
C -10.321400 8.009900 -8.056700
C -11.559200 8.540100 -7.716100
H -10.222500 7.369000 -8.919100
H -12.428500 8.315900 -8.312600
H -12.593400 9.799200 -6.315200
N -7.002600 8.624400 -5.889900
H -8.118700 9.869100 -4.659400
C -5.918900 12.445000 -8.602600
C -5.013000 11.412700 -8.414700
C -5.491300 10.107900 -8.318700
H -3.955700 11.613000 -8.346200
N -6.801200 9.819700 -8.391300
C -4.602200 8.971700 -8.202200
C -7.657500 10.807100 -8.595900
C -7.267200 12.135500 -8.706100
H -8.698300 10.533900 -8.681200
H -8.004300 12.904100 -8.872800
H -5.584400 13.468000 -8.676900
N -5.088700 7.791200 -8.164500
H -3.531800 9.161900 -8.222000
C -8.561100 5.787000 -11.998500
C -8.442700 5.075100 -10.813900
C -8.000800 5.739800 -9.670800
H -8.688200 4.025700 -10.776100
N -7.689800 7.047700 -9.687500
C -7.847600 5.055400 -8.403600
C -7.801700 7.722300 -10.819900
C -8.231800 7.134700 -12.003400
H -7.534200 8.767200 -10.785000
H -8.305300 7.721900 -12.904300
H -8.900200 5.302800 -12.900900
N -7.473900 5.678000 -7.347200
H -8.087100 3.994300 -8.389300
&END COORD

! Atom Basis Set
! --------------
&KIND C
  BASIS_SET DZVP-MOLOPT-GTH
  POTENTIAL GTH-PBE-q4
&END KIND
&KIND H
  BASIS_SET DZVP-MOLOPT-GTH
  POTENTIAL GTH-PBE-q1
&END KIND
&KIND N
  BASIS_SET DZVP-MOLOPT-GTH
  POTENTIAL GTH-PBE-q5
&END KIND
&KIND O
  BASIS_SET DZVP-MOLOPT-GTH
  POTENTIAL GTH-PBE-q6
&END KIND
&KIND Zn
  BASIS_SET  DZVP-MOLOPT-SR-GTH
  POTENTIAL  GTH-PBE-q12
&END KIND
&END SUBSYS
&END FORCE_EVAL

! Geometry Optimization
! ---------------------
&MOTION
  &GEO_OPT
    OPTIMIZER BFGS
    MAX_ITER 2000
    MAX_DR  [bohr] 0.003
    &BFGS
    &END
  &END GEO_OPT
&END MOTION

