&GLOBAL
  PROJECT_NAME C_cl1_quad2_12_d31n_optc_opt
  RUN_TYPE GEO_OPT
  EXTENDED_FFT_LENGTHS
&END GLOBAL

! Force Evaluation
! ----------------
&FORCE_EVAL
  METHOD QS
  &DFT
    BASIS_SET_FILE_NAME BASIS_MOLOPT
    POTENTIAL_FILE_NAME GTH_POTENTIALS
    CHARGE 16
    &QS
      EPS_DEFAULT 1.0E-10
    &END QS
    &MGRID
      NGRIDS 5
     CUTOFF 700
     REL_CUTOFF 60
    &END MGRID
    &SCF
      SCF_GUESS ATOMIC
      EPS_SCF 5.0E-7
      MAX_SCF 300
      &OT
        PRECONDITIONER FULL_SINGLE_INVERSE
        MINIMIZER DIIS
      &END OT
      &OUTER_SCF ! Repeat the inner SCF cycle 10 times
        MAX_SCF 10
        EPS_SCF 5.0E-7 ! Must match the above
      &END
      &PRINT
        &RESTART ON
        FILENAME C_cl1_quad2_12_d31n_optc_opt.res
      &END
      &END
    &END SCF

    ! Exchange-Correlation
    ! -------------------
    &XC
      &VDW_POTENTIAL
        POTENTIAL_TYPE PAIR_POTENTIAL
        &PAIR_POTENTIAL
          TYPE DFTD3
          CALCULATE_C9_TERM .TRUE.
          PARAMETER_FILE_NAME dftd3.dat
          REFERENCE_FUNCTIONAL PBE
          R_CUTOFF 10.
          EPS_CN 0.01
        &END PAIR_POTENTIAL
      &END VDW_POTENTIAL
      &XC_FUNCTIONAL PBE
      &END XC_FUNCTIONAL
    &END XC
  &END DFT
  &PRINT
    &FORCES ON
    &END FORCES
  &END PRINT

&SUBSYS
! Cell
! ----
&CELL
  ABC 56.67 56.67 56.67
  ALPHA_BETA_GAMMA 90.0 90.0 90.0
  PERIODIC NONE
&END CELL

! Coordinates
! -----------
&COORD
C -3.236000 6.111700 7.708000
C -2.406100 5.677500 8.745800
C -1.841100 4.418900 8.695500
C -2.088600 3.571300 7.616300
C -1.541900 2.203500 7.589300
C -2.383500 1.120300 7.520100
C -1.867400 -0.188400 7.515700
C -2.741700 -1.289700 7.525800
C -2.251600 -2.571500 7.489800
C -3.212700 -3.696700 7.511200
C -3.467400 -4.450800 6.368300
C -4.426700 -5.444500 6.380500
C -5.168500 -5.693200 7.536400
C -4.894400 -4.960400 8.694900
C -3.926700 -3.975900 8.676300
C -0.867000 -2.782600 7.439500
C 0.037300 -1.732800 7.467000
C 1.484500 -1.945000 7.470100
C 2.055800 -3.209200 7.437600
C 3.444900 -3.395600 7.494700
C 4.118100 -4.704100 7.493500
C 5.132700 -4.921200 8.430200
C 5.965000 -6.013000 8.334000
C 5.797600 -6.933400 7.298500
C 4.718700 -6.777900 6.424300
C 3.895100 -5.672300 6.516600
C 4.269600 -2.295700 7.539000
C 3.741700 -0.998000 7.529400
C 4.612300 0.102500 7.543000
C 4.120700 1.386400 7.570600
C 5.079000 2.496600 7.631300
C 6.235800 2.450500 6.850400
C 7.237100 3.380700 7.015400
C 7.088400 4.410800 7.946100
C 5.903600 4.509100 8.674700
C 4.915700 3.555700 8.523300
C 2.732800 1.582000 7.587400
C 1.838900 0.525000 7.558900
C 0.396600 0.731500 7.567800
C -0.158200 1.996300 7.634600
C -0.462000 -0.400600 7.512000
C 2.335900 -0.805600 7.518200
C -2.891500 4.022600 6.569500
C -3.466500 5.274700 6.614700
H -2.258500 6.301200 9.614600
H -1.228200 4.076200 9.515400
H -3.453000 1.260900 7.507500
H -3.806500 -1.116700 7.562700
H -2.923400 -4.244600 5.460600
H -4.648700 -6.004400 5.487400
H -5.415000 -5.186700 9.613600
H -3.722000 -3.415800 9.576400
H -0.523900 -3.802900 7.413600
H 1.437800 -4.090800 7.408000
H 5.268500 -4.219500 9.239100
H 6.730900 -6.182200 9.071500
H 4.586900 -7.496000 5.630600
H 3.104000 -5.525200 5.798300
H 5.340900 -2.417800 7.561700
H 5.675200 -0.078500 7.572100
H 6.349300 1.670600 6.115200
H 8.127800 3.344200 6.409200
H 5.801300 5.285800 9.415000
H 4.032800 3.606300 9.141800
H 2.378400 2.598400 7.601700
H 0.464500 2.872200 7.699700
H -3.062300 3.383800 5.718300
H -4.075200 5.634000 5.801000
C 8.971800 4.121800 -6.589300
C 9.978200 3.275100 -6.114700
C 9.848500 2.674900 -4.878800
C 8.719100 2.901600 -4.091700
C 8.646100 2.357600 -2.725600
C 8.445500 3.208100 -1.664900
C 8.483800 2.727900 -0.343200
C 8.389200 3.626900 0.731700
C 8.495900 3.188400 2.032200
C 8.483700 4.190100 3.109800
C 9.403700 4.154400 4.157600
C 9.453200 5.168400 5.097600
C 8.591500 6.258300 4.995100
C 7.660200 6.295000 3.957300
C 7.594600 5.264400 3.045300
C 8.656700 1.815700 2.278200
C 8.715200 0.884200 1.254500
C 8.863800 -0.548900 1.506200
C 8.922000 -1.082200 2.786300
C 9.094900 -2.455600 3.008800
C 9.206800 -3.092100 4.331600
C 10.216400 -4.045100 4.499000
C 10.228300 -4.879500 5.591600
C 9.241500 -4.753700 6.569200
C 8.305000 -3.725100 6.475600
C 8.281300 -2.910600 5.355800
C 9.161900 -3.307800 1.930700
C 9.076100 -2.820700 0.619900
C 9.136500 -3.720200 -0.455700
C 9.077700 -3.270200 -1.754200
C 9.188200 -4.240900 -2.848200
C 8.597900 -5.501200 -2.722500
C 8.799200 -6.476500 -3.673500
C 9.568300 -6.198800 -4.806500
C 10.113000 -4.924600 -4.969800
C 9.934400 -3.965300 -3.995000
C 8.959800 -1.891100 -1.986900
C 8.902200 -0.970000 -0.955800
C 8.785100 0.461400 -1.202900
C 8.822400 0.989500 -2.481300
C 8.652600 1.339700 -0.093000
C 8.946200 -1.426800 0.389600
C 7.699100 3.712600 -4.590700
C 7.823000 4.322500 -5.821100
H 10.886600 3.147200 -6.683900
H 10.648300 2.056100 -4.501000
H 8.315400 4.265300 -1.833100
H 8.291000 4.679600 0.518100
H 10.118200 3.347200 4.217200
H 10.202400 5.157100 5.873900
H 6.972700 7.122800 3.901300
H 6.846900 5.292700 2.269100
H 8.727400 1.501400 3.305800
H 8.867400 -0.442200 3.651000
H 10.988500 -4.141000 3.751600
H 11.001400 -5.620300 5.712400
H 7.552100 -3.634800 7.243400
H 7.508500 -2.165900 5.250500
H 9.266200 -4.370700 2.082700
H 9.268200 -4.768500 -0.238600
H 7.974700 -5.713300 -1.869000
H 8.331600 -7.443200 -3.575300
H 10.727700 -4.723000 -5.831200
H 10.413900 -3.005800 -4.106900
H 8.889200 -1.567700 -3.011300
H 8.974800 0.353100 -3.336500
H 6.807200 3.865100 -4.004800
H 7.033000 4.940800 -6.216900
C -3.402700 7.624100 -6.744800
C -2.345200 6.715300 -6.734900
C -1.495300 6.651400 -5.642200
C -1.675400 7.507900 -4.560600
C -1.020500 7.346300 -3.248900
C -1.884400 7.213000 -2.186300
C -1.406700 7.158200 -0.870500
C -2.322800 7.105700 0.191800
C -1.891600 7.160400 1.497300
C -2.887700 7.257100 2.570000
C -2.683700 8.093200 3.669800
C -3.680100 8.294300 4.602000
C -4.925200 7.687300 4.436500
C -5.128300 6.821100 3.359000
C -4.112900 6.594200 2.456700
C -0.511700 7.224900 1.747800
C 0.425700 7.260800 0.730800
C 1.852500 7.389300 0.999000
C 2.356500 7.432100 2.287400
C 3.716800 7.641200 2.548500
C 4.230700 7.709600 3.926000
C 5.079300 8.755100 4.292700
C 5.673600 8.778300 5.537900
C 5.421900 7.751600 6.446100
C 4.524300 6.739100 6.114100
C 3.941900 6.717900 4.861100
C 4.588700 7.768800 1.494100
C 4.132300 7.653600 0.169100
C 5.053900 7.675500 -0.888200
C 4.641900 7.515000 -2.192800
C 5.674400 7.461000 -3.237500
C 6.861200 6.774500 -2.964400
C 7.901500 6.755500 -3.863700
C 7.778200 7.406100 -5.095800
C 6.587100 8.070200 -5.389400
C 5.554100 8.100500 -4.471000
C 3.267900 7.400800 -2.462800
C 2.316700 7.402500 -1.455000
C 0.881700 7.319000 -1.726000
C 0.360400 7.371000 -3.012400
C -0.012000 7.235800 -0.621900
C 2.748500 7.483800 -0.100200
C -2.664400 8.494000 -4.638900
C -3.527900 8.548200 -5.706900
H -2.258500 6.007400 -7.544500
H -0.724400 5.898000 -5.606500
H -2.949000 7.170400 -2.357000
H -3.374800 7.093500 -0.045100
H -1.753200 8.628200 3.774700
H -3.533500 8.976500 5.423000
H -6.070900 6.305100 3.268600
H -4.267500 5.898500 1.648300
H -0.197900 7.247800 2.777100
H 1.703000 7.338400 3.137800
H 5.270400 9.558800 3.597700
H 6.309300 9.599900 5.826200
H 4.340800 5.947400 6.823100
H 3.281000 5.909200 4.593300
H 5.643000 7.921600 1.667900
H 6.096300 7.833400 -0.657800
H 6.955100 6.239700 -2.033200
H 8.800100 6.199000 -3.647200
H 6.507700 8.615500 -6.316000
H 4.660600 8.661600 -4.697900
H 2.971600 7.282000 -3.491500
H 1.011000 7.483800 -3.863600
H -2.765700 9.209000 -3.837200
H -4.294600 9.303300 -5.761200
C -6.268300 6.394700 -4.236700
C -7.185400 6.133500 -3.214200
C -7.040300 5.010800 -2.421500
C -5.970800 4.136600 -2.615400
C -5.943700 2.799400 -1.999800
C -5.761500 1.743400 -2.863700
C -5.871400 0.418600 -2.419700
C -5.826800 -0.630900 -3.352000
C -6.028000 -1.931900 -2.953200
C -6.136100 -2.981400 -3.973900
C -7.119400 -3.967700 -3.883400
C -7.320800 -4.863300 -4.914600
C -6.554100 -4.774900 -6.075500
C -5.541300 -3.818200 -6.157200
C -5.324200 -2.950500 -5.109400
C -6.199400 -2.202300 -1.587700
C -6.200200 -1.202500 -0.631400
C -6.345100 -1.491100 0.789100
C -6.373500 -2.786300 1.271500
C -6.526300 -3.074800 2.635300
C -6.556600 -4.464400 3.107600
C -7.440300 -4.835000 4.123400
C -7.430000 -6.112500 4.637100
C -6.547900 -7.064300 4.123900
C -5.699200 -6.721000 3.069700
C -5.697400 -5.429800 2.580800
C -6.639300 -2.033300 3.526900
C -6.584100 -0.699700 3.084600
C -6.653400 0.347000 4.017400
C -6.568100 1.661300 3.615600
C -6.588800 2.718800 4.634600
C -5.935400 2.504000 5.850900
C -5.942000 3.456100 6.844300
C -6.580300 4.682700 6.638200
C -7.244500 4.902800 5.431300
C -7.253600 3.931400 4.449300
C -6.435600 1.948300 2.246200
C -6.370900 0.952800 1.286000
C -6.201000 1.244500 -0.137700
C -6.172400 2.537300 -0.640300
C -6.082100 0.152200 -1.042400
C -6.435700 -0.407000 1.702500
C -5.003100 4.464100 -3.571600
C -5.156900 5.562300 -4.387500
H -8.056900 6.761000 -3.102700
H -7.794900 4.782600 -1.684500
H -5.594400 1.918700 -3.913700
H -5.707700 -0.389000 -4.396000
H -7.767800 -4.005100 -3.021700
H -8.123800 -5.580800 -4.864600
H -4.914800 -3.791600 -7.034000
H -4.520400 -2.235200 -5.171300
H -6.330800 -3.231100 -1.300000
H -6.300800 -3.621300 0.596400
H -8.149600 -4.118100 4.506300
H -8.125700 -6.399800 5.408200
H -5.001800 -7.453500 2.694500
H -4.999100 -5.157900 1.805700
H -6.737500 -2.224500 4.584500
H -6.798500 0.098100 5.057200
H -5.397500 1.582700 6.005000
H -5.405400 3.287600 7.765000
H -7.798000 5.818300 5.298500
H -7.809800 4.103300 3.540700
H -6.352500 2.984000 1.963800
H -6.314500 3.382000 0.012600
H -4.133700 3.836700 -3.684900
H -4.425800 5.800100 -5.143100
C 7.858000 -4.319100 -7.969200
C 7.399500 -3.445900 -8.960400
C 6.148900 -2.873000 -8.850100
C 5.330800 -3.152800 -7.755000
C 3.955100 -2.634900 -7.697900
C 2.911200 -3.508400 -7.505100
C 1.580500 -3.056000 -7.548200
C 0.523100 -3.977400 -7.468500
C -0.784000 -3.564300 -7.590000
C -1.847300 -4.580800 -7.607300
C -2.878200 -4.541800 -8.546100
C -3.820500 -5.552600 -8.610600
C -3.737800 -6.639500 -7.743300
C -2.709900 -6.686400 -6.802600
C -1.793400 -5.660000 -6.724200
C -1.056400 -2.194700 -7.732600
C -0.051200 -1.242700 -7.760300
C -0.332500 0.186500 -7.877500
C -1.619500 0.700000 -7.825500
C -1.877600 2.068600 -7.993400
C -3.212500 2.677400 -7.903800
C -3.572500 3.653300 -8.837100
C -4.690800 4.433700 -8.649200
C -5.494600 4.246800 -7.523800
C -5.202800 3.197700 -6.649100
C -4.069200 2.430500 -6.832100
C -0.824600 2.930200 -8.195900
C 0.498400 2.468600 -8.171500
C 1.553500 3.389500 -8.259200
C 2.860900 2.971200 -8.171200
C 3.929900 3.974200 -8.223300
C 3.743600 5.208200 -7.594600
C 4.678200 6.212100 -7.711300
C 5.853600 5.989300 -8.432500
C 6.072600 4.743000 -9.020400
C 5.115000 3.754400 -8.925600
C 3.127000 1.599500 -8.041500
C 2.117300 0.654600 -7.980800
C 2.395200 -0.770300 -7.845800
C 3.684000 -1.272200 -7.879300
C 1.304500 -1.671800 -7.708200
C 0.762800 1.083400 -8.016700
C 5.810800 -3.994900 -6.750600
C 7.054700 -4.578600 -6.856400
H 7.994900 -3.274100 -9.844500
H 5.785400 -2.233900 -9.640400
H 3.101300 -4.562300 -7.378100
H 0.756600 -5.026300 -7.375300
H -2.924900 -3.733500 -9.260100
H -4.585600 -5.537300 -9.370800
H -2.665600 -7.517100 -6.117900
H -1.024600 -5.693600 -5.969100
H -2.088400 -1.899600 -7.821600
H -2.464300 0.048900 -7.675600
H -2.963600 3.802500 -9.715700
H -4.970700 5.170600 -9.382700
H -5.833900 3.049800 -5.787400
H -3.811100 1.667000 -6.115300
H -0.998300 3.987000 -8.323200
H 1.317300 4.431400 -8.408900
H 2.857600 5.377400 -7.004700
H 4.532500 7.156900 -7.212300
H 6.965700 4.586100 -9.601900
H 5.272900 2.816600 -9.434500
H 4.158500 1.302700 -7.956700
H 4.525900 -0.618400 -8.032500
H 5.200300 -4.190300 -5.883900
H 7.435100 -5.219400 -6.077100
C 8.083200 -7.666300 4.123400
C 7.890100 -8.566400 3.070700
C 6.786500 -8.446400 2.247300
C 5.862700 -7.420000 2.442000
C 4.536100 -7.435400 1.803100
C 3.466900 -7.330000 2.663300
C 2.151000 -7.475000 2.205500
C 1.097100 -7.502500 3.132100
C -0.199000 -7.710400 2.719100
C -1.249700 -7.869500 3.730500
C -2.277300 -8.800800 3.568800
C -3.193200 -9.026200 4.575800
C -3.087500 -8.346300 5.789700
C -2.074000 -7.397100 5.952100
C -1.188700 -7.150000 4.927500
C -0.455100 -7.831800 1.344000
C 0.551900 -7.782400 0.396100
C 0.279900 -7.915900 -1.029100
C -1.009800 -7.962000 -1.527300
C -1.275500 -8.158600 -2.888800
C -2.656600 -8.200100 -3.394900
C -3.046600 -9.211700 -4.273400
C -4.297800 -9.196500 -4.856100
C -5.188800 -8.166000 -4.561600
C -4.833800 -7.189400 -3.633100
C -3.575100 -7.205200 -3.064000
C -0.223400 -8.282100 -3.764500
C 1.103000 -8.154900 -3.313900
C 2.156400 -8.151600 -4.241400
C 3.457900 -7.962300 -3.833600
C 4.506600 -7.871200 -4.859000
C 4.237800 -7.160500 -6.031800
C 5.162500 -7.079700 -7.047500
C 6.410400 -7.696100 -6.912100
C 6.691700 -8.399100 -5.740500
C 5.751200 -8.486900 -4.731700
C 3.731500 -7.831900 -2.462000
C 2.729100 -7.848700 -1.506300
C 3.004300 -7.695800 -0.077600
C 4.292600 -7.632800 0.435500
C 1.901100 -7.642000 0.819700
C 1.376100 -7.979700 -1.931200
C 6.122700 -6.463400 3.430200
C 7.201500 -6.593200 4.274400
H 8.554700 -9.409600 2.956200
H 6.612500 -9.190400 1.485000
H 3.629500 -7.192400 3.719200
H 1.336600 -7.430900 4.180800
H -2.335400 -9.387200 2.665200
H -3.951600 -9.783700 4.463800
H -2.019300 -6.832200 6.868700
H -0.439200 -6.386000 5.051800
H -1.478200 -7.970000 1.039900
H -1.857000 -7.870700 -0.869300
H -2.366100 -10.019000 -4.497900
H -4.604000 -9.992400 -5.515700
H -5.529300 -6.394200 -3.416400
H -3.288700 -6.421000 -2.381800
H -0.400100 -8.430500 -4.819000
H 1.926300 -8.307200 -5.284200
H 3.291700 -6.653800 -6.133100
H 4.951900 -6.499500 -7.932400
H 7.629100 -8.925000 -5.658600
H 5.970900 -9.071700 -3.851700
H 4.758100 -7.679300 -2.174500
H 5.146100 -7.722800 -0.215400
H 5.454800 -5.625300 3.547400
H 7.388700 -5.870200 5.051900
Zn 8.186900 7.416500 7.990000
C 12.729000 6.098200 9.175200
C 11.693000 5.210500 8.928300
C 10.432800 5.717500 8.614500
H 11.856500 4.145800 8.982000
N 10.192900 7.036300 8.537100
C 9.304300 4.844300 8.372500
C 11.185500 7.878400 8.776100
C 12.469900 7.459000 9.099800
H 10.954800 8.930900 8.711700
H 13.245100 8.184200 9.286700
H 13.716200 5.740300 9.422400
N 8.129800 5.316500 8.181900
H 9.491900 3.772600 8.395900
C 6.203300 7.985500 12.422200
C 5.469900 7.956600 11.244800
C 6.145800 7.804100 10.036700
H 4.396000 8.055100 11.262400
N 7.481700 7.678100 9.976000
C 5.446100 7.789200 8.764600
C 8.176200 7.706800 11.101700
C 7.582400 7.859600 12.349500
H 9.247100 7.604600 11.012300
H 8.190600 7.877800 13.239200
H 5.712700 8.103800 13.375600
N 6.103300 7.749900 7.672800
H 4.359400 7.846400 8.782600
C 9.258900 11.985500 6.723300
C 9.234400 10.919200 5.836700
C 8.893300 9.655300 6.314300
H 9.478600 11.063000 4.796000
N 8.585000 9.441100 7.603200
C 8.847100 8.499200 5.441100
C 8.605000 10.462900 8.444600
C 8.935500 11.754100 8.052500
H 8.346600 10.247700 9.470400
H 8.937700 12.556100 8.772700
H 9.521200 12.976200 6.386400
N 8.669500 7.323500 5.908700
H 8.991800 8.675700 4.377000
Zn 8.891200 -7.813000 7.203300
C 7.842200 -12.530800 6.393500
C 6.897200 -11.517100 6.413300
C 7.302800 -10.223200 6.736600
H 5.863200 -11.723800 6.187000
N 8.582300 -9.924600 7.015200
C 6.352400 -9.138500 6.840700
C 9.475700 -10.901700 7.014500
C 9.155900 -12.218800 6.711300
H 10.488900 -10.633300 7.271300
H 9.921500 -12.977400 6.727900
H 7.563300 -13.543200 6.146500
N 6.734300 -7.960500 7.162700
H 5.304000 -9.387200 6.692200
C 9.222800 -7.296600 12.050900
C 9.273900 -6.232400 11.161500
C 9.145000 -6.490700 9.799200
H 9.415600 -5.223800 11.516500
N 8.969200 -7.735200 9.322600
C 9.203300 -5.432500 8.805500
C 8.916800 -8.745300 10.174400
C 9.038500 -8.576300 11.548900
H 8.770300 -9.726500 9.749500
H 8.989700 -9.428900 12.206500
H 9.322500 -7.131500 13.112300
N 9.183100 -5.731900 7.566700
H 9.291100 -4.407000 9.158300
C 13.605900 -8.731800 6.297400
C 12.629200 -8.656600 5.316400
C 11.323100 -8.341900 5.688500
H 12.873900 -8.836200 4.281500
N 10.983100 -8.113400 6.968300
C 10.266500 -8.207200 4.710000
C 11.921500 -8.179600 7.898800
C 13.246800 -8.482800 7.614200
H 11.609900 -7.986700 8.913800
H 13.975500 -8.526600 8.407200
H 14.625500 -8.976100 6.043100
N 9.103200 -7.805600 5.063200
H 10.520600 -8.412900 3.673400
Zn -6.113700 -8.686300 6.772200
C -10.639800 -8.048800 8.426300
C -9.616900 -7.126300 8.586500
C -8.379300 -7.383900 7.999300
H -9.774200 -6.223600 9.155500
N -8.149600 -8.497600 7.285100
C -7.287000 -6.438900 8.089100
C -9.132800 -9.368800 7.125200
C -10.395700 -9.189700 7.675400
H -8.907900 -10.245800 6.537500
H -11.165900 -9.927800 7.521200
H -11.607100 -7.881000 8.873600
N -6.182100 -6.654800 7.480500
H -7.474100 -5.522500 8.643900
C -4.847600 -9.557600 11.414400
C -3.963600 -9.181100 10.416000
C -4.436900 -9.048500 9.111300
H -2.925200 -8.997500 10.641000
N -5.724600 -9.258400 8.794400
C -3.553100 -8.720300 8.017100
C -6.558000 -9.640700 9.749100
C -6.169200 -9.804800 11.071900
H -7.578400 -9.833000 9.454700
H -6.887400 -10.119100 11.811600
H -4.516500 -9.666700 12.435300
N -3.989600 -8.636300 6.815600
H -2.498200 -8.603300 8.254600
C -6.487900 -13.074400 4.660600
C -6.566800 -11.875100 3.967500
C -6.438200 -10.682000 4.674800
H -6.730200 -11.864500 2.901500
N -6.232300 -10.657600 6.003200
C -6.526300 -9.388800 4.024000
C -6.155900 -11.803800 6.658500
C -6.278500 -13.038500 6.031100
H -5.987400 -11.741500 7.722600
H -6.210300 -13.947000 6.607100
H -6.586300 -14.017000 4.145300
N -6.492500 -8.322200 4.727000
H -6.646200 -9.368700 2.943000
Zn -5.930900 7.746000 7.447200
C -3.871100 12.067300 8.400900
C -3.204400 10.853800 8.478700
C -3.885600 9.688500 8.131200
H -2.176500 10.809800 8.801900
N -5.166100 9.706900 7.723600
C -3.241500 8.392100 8.151400
C -5.794200 10.868400 7.643000
C -5.189700 12.076200 7.969800
H -6.820200 10.839700 7.309300
H -5.743000 12.997800 7.891500
H -3.375200 12.987400 8.667900
N -3.862200 7.358000 7.722300
H -2.208800 8.350900 8.489100
C -6.722200 6.919500 12.220700
C -6.828400 5.955500 11.231100
C -6.565300 6.312600 9.908700
H -7.115900 4.945300 11.475700
N -6.204900 7.558600 9.563600
C -6.684100 5.349600 8.838200
C -6.109600 8.475200 10.514800
C -6.357100 8.207000 11.854300
H -5.830300 9.469700 10.203500
H -6.267000 8.990300 12.589300
H -6.921900 6.676700 13.252700
N -6.523800 5.683700 7.612700
H -6.943300 4.332700 9.125200
C -10.456000 9.171000 6.299500
C -9.458200 8.921300 5.369700
C -8.204200 8.514700 5.822400
H -9.646100 9.043900 4.314800
N -7.934300 8.353100 7.128400
C -7.112500 8.253300 4.908400
C -8.890500 8.592900 8.010200
C -10.167000 9.003300 7.645800
H -8.636900 8.454900 9.049800
H -10.913200 9.186100 8.401800
H -11.437500 9.488600 5.984300
N -5.947900 7.956400 5.349800
H -7.317400 8.346300 3.843700
Zn 8.866500 6.891600 -8.112300
C 10.140100 5.012900 -12.436800
C 10.107900 4.289500 -11.254300
C 9.684600 4.924800 -10.088200
H 10.404500 3.252900 -11.234700
N 9.308400 6.214900 -10.076800
C 9.590000 4.222400 -8.826100
C 9.334400 6.897900 -11.209400
C 9.741400 6.341600 -12.415800
H 9.023000 7.929800 -11.157900
H 9.748300 6.938800 -13.313000
H 10.466400 4.553300 -13.356700
N 9.080400 4.799700 -7.803000
H 9.916600 3.185500 -8.804400
C 13.539000 7.570400 -6.808300
C 12.462100 7.660900 -5.941200
C 11.178000 7.423600 -6.431500
H 12.610700 7.916100 -4.904000
N 10.952200 7.103300 -7.715200
C 10.021600 7.522300 -5.571800
C 11.986300 7.021600 -8.538600
C 13.295800 7.245200 -8.135000
H 11.769500 6.773700 -9.565900
H 14.102200 7.167900 -8.846000
H 14.544500 7.751500 -6.461800
N 8.829800 7.372600 -6.018100
H 10.214600 7.753000 -4.526300
C 8.017700 11.516600 -9.450700
C 7.041800 10.535200 -9.366700
C 7.411300 9.252900 -8.963900
H 6.015400 10.756900 -9.613000
N 8.679200 8.939700 -8.649700
C 6.445800 8.178700 -8.869200
C 9.605000 9.880600 -8.732600
C 9.324800 11.182900 -9.127800
H 10.613100 9.592900 -8.477400
H 10.114500 11.914600 -9.180500
H 7.767000 12.518900 -9.760900
N 6.816200 6.992700 -8.560900
H 5.407900 8.418900 -9.091700
Zn 9.445000 -7.049200 -7.854800
C 10.919500 -11.631400 -7.028400
C 10.758900 -10.672800 -6.039600
C 10.313900 -9.402200 -6.401200
H 10.978200 -10.902900 -5.008900
N 10.034100 -9.078900 -7.674600
C 10.130100 -8.353300 -5.420700
C 10.188200 -9.998300 -8.612700
C 10.626900 -11.288300 -8.340300
H 9.954800 -9.703100 -9.624000
H 10.736000 -12.003300 -9.139500
H 11.263800 -12.624100 -6.784200
N 9.788600 -7.173300 -5.782000
H 10.311600 -8.606200 -4.378000
C 13.764200 -5.043900 -8.941000
C 12.562200 -4.352800 -8.946800
C 11.399500 -5.021400 -8.567000
H 12.524700 -3.315700 -9.239900
N 11.409800 -6.313300 -8.196900
C 10.117100 -4.352900 -8.512700
C 12.561100 -6.964800 -8.185100
C 13.765300 -6.374400 -8.547900
H 12.527600 -7.998900 -7.878200
H 14.678200 -6.947100 -8.525700
H 14.681700 -4.558300 -9.234500
N 9.090600 -4.964400 -8.051500
H 10.081600 -3.311800 -8.823700
C 8.355200 -7.607200 -12.602400
C 7.443700 -7.744700 -11.567800
C 7.876400 -7.551300 -10.256000
H 6.416300 -8.002500 -11.770300
N 9.145900 -7.228400 -9.963300
C 6.970900 -7.707200 -9.141300
C 10.012400 -7.104600 -10.957000
C 9.667600 -7.282900 -12.290100
H 11.027800 -6.859400 -10.687200
H 10.412200 -7.172200 -13.061500
H 8.053600 -7.752400 -13.627900
N 7.366400 -7.593600 -7.928400
H 5.939800 -7.953700 -9.385700
Zn -6.748300 -7.723900 -7.299800
C -7.898400 -6.169700 -11.771500
C -7.592300 -5.335300 -10.707100
C -7.299700 -5.904700 -9.469000
H -7.584300 -4.264100 -10.832700
N -7.297800 -7.233600 -9.277400
C -6.999600 -5.090000 -8.310200
C -7.592600 -8.024700 -10.296500
C -7.901300 -7.540900 -11.561800
H -7.586800 -9.086800 -10.103400
H -8.136500 -8.225400 -12.360600
H -8.131500 -5.763000 -12.743200
N -6.836900 -5.619700 -7.156900
H -6.956300 -4.012400 -8.455400
C -11.175900 -8.196600 -5.288400
C -9.991600 -8.222100 -4.565900
C -8.785400 -8.094400 -5.250400
H -10.003000 -8.342800 -3.494200
N -8.732900 -7.940400 -6.583900
C -7.507200 -8.135500 -4.563600
C -9.865200 -7.917400 -7.267900
C -11.111800 -8.042500 -6.665000
H -9.782600 -7.793700 -8.337100
H -12.007200 -8.018700 -7.264700
H -12.128300 -8.294300 -4.791200
N -6.420500 -8.119100 -5.231300
H -7.516900 -8.213000 -3.478200
C -5.633500 -12.305400 -8.496900
C -4.712300 -11.269100 -8.454600
C -5.147700 -9.997600 -8.087000
H -3.677700 -11.441800 -8.705700
N -6.427400 -9.747800 -7.767800
C -4.238700 -8.869200 -8.027600
C -7.301800 -10.740700 -7.806000
C -6.953400 -12.037000 -8.164900
H -8.319400 -10.497900 -7.539000
H -7.699700 -12.814500 -8.181700
H -5.329800 -13.301200 -8.779800
N -4.672700 -7.686500 -7.821700
H -3.181900 -9.072300 -8.190400
Zn -6.474800 7.286500 -7.294400
C -6.130100 7.783600 -12.135400
C -5.036100 7.810800 -11.281700
C -5.246200 7.630500 -9.917000
H -4.041400 7.972800 -11.666100
N -6.473000 7.430300 -9.405200
C -4.154400 7.657800 -8.959100
C -7.511600 7.399000 -10.223200
C -7.390500 7.570300 -11.597500
H -8.476400 7.229200 -9.770000
H -8.264500 7.536700 -12.227400
H -6.002000 7.923200 -13.197400
N -4.411400 7.597800 -7.711900
H -3.142000 7.758100 -9.344400
C -7.499400 11.946100 -6.238000
C -7.383700 10.944300 -5.286700
C -7.039700 9.658500 -5.700800
H -7.554200 11.154400 -4.242700
N -6.821100 9.360600 -6.992800
C -6.866200 8.577600 -4.755700
C -6.925900 10.323100 -7.894800
C -7.260400 11.631100 -7.567900
H -6.739800 10.046900 -8.921200
H -7.335800 12.380400 -8.339000
H -7.767400 12.951000 -5.951500
N -6.433300 7.438200 -5.147200
H -7.072700 8.791900 -3.710300
C -11.096600 6.057500 -6.238500
C -10.049900 5.152300 -6.317700
C -8.794900 5.607100 -6.718600
H -10.201600 4.111800 -6.078300
N -8.563600 6.896700 -7.014700
C -7.681700 4.701100 -6.895600
C -9.572600 7.751700 -6.956500
C -10.856000 7.381400 -6.575900
H -9.358400 8.773900 -7.228900
H -11.644000 8.116400 -6.548600
H -12.080800 5.740200 -5.931300
N -6.549100 5.135300 -7.302400
H -7.872100 3.642900 -6.732200
&END COORD

! Atom Basis Set
! --------------
&KIND C
  BASIS_SET DZVP-MOLOPT-GTH
  POTENTIAL GTH-PBE-q4
&END KIND
&KIND H
  BASIS_SET DZVP-MOLOPT-GTH
  POTENTIAL GTH-PBE-q1
&END KIND
&KIND N
  BASIS_SET DZVP-MOLOPT-GTH
  POTENTIAL GTH-PBE-q5
&END KIND
&KIND O
  BASIS_SET DZVP-MOLOPT-GTH
  POTENTIAL GTH-PBE-q6
&END KIND
&KIND Zn
  BASIS_SET  DZVP-MOLOPT-SR-GTH
  POTENTIAL  GTH-PBE-q12
&END KIND
&END SUBSYS
&END FORCE_EVAL

! Geometry Optimization
! ---------------------
&MOTION
  &GEO_OPT
    OPTIMIZER BFGS
    MAX_ITER 2000
    MAX_DR  [bohr] 0.003
    &BFGS
    &END
  &END GEO_OPT
&END MOTION

