&GLOBAL
  PROJECT_NAME C_cl1_quad2_12_s42_optc_opt
  RUN_TYPE GEO_OPT
  EXTENDED_FFT_LENGTHS
&END GLOBAL

! Force Evaluation
! ----------------
&FORCE_EVAL
  METHOD QS
  &DFT
    BASIS_SET_FILE_NAME BASIS_MOLOPT
    POTENTIAL_FILE_NAME GTH_POTENTIALS
    CHARGE 16
    &QS
      EPS_DEFAULT 1.0E-10
    &END QS
    &MGRID
      NGRIDS 5
     CUTOFF 700
     REL_CUTOFF 60
    &END MGRID
    &SCF
      SCF_GUESS ATOMIC
      EPS_SCF 5.0E-7
      MAX_SCF 300
      &OT
        PRECONDITIONER FULL_SINGLE_INVERSE
        MINIMIZER DIIS
      &END OT
      &OUTER_SCF ! Repeat the inner SCF cycle 10 times
        MAX_SCF 10
        EPS_SCF 5.0E-7 ! Must match the above
      &END
      &PRINT
        &RESTART ON
        FILENAME C_cl1_quad2_12_s42_optc_opt.res
      &END
      &END
    &END SCF

    ! Exchange-Correlation
    ! -------------------
    &XC
      &VDW_POTENTIAL
        POTENTIAL_TYPE PAIR_POTENTIAL
        &PAIR_POTENTIAL
          TYPE DFTD3
          CALCULATE_C9_TERM .TRUE.
          PARAMETER_FILE_NAME dftd3.dat
          REFERENCE_FUNCTIONAL PBE
          R_CUTOFF 10.
          EPS_CN 0.01
        &END PAIR_POTENTIAL
      &END VDW_POTENTIAL
      &XC_FUNCTIONAL PBE
      &END XC_FUNCTIONAL
    &END XC
  &END DFT
  &PRINT
    &FORCES ON
    &END FORCES
  &END PRINT

&SUBSYS
! Cell
! ----
&CELL
  ABC 57.65 57.65 57.65
  ALPHA_BETA_GAMMA 90.0 90.0 90.0
  PERIODIC NONE
&END CELL

! Coordinates
! -----------
&COORD
C 7.408300 3.953600 7.449000
C 6.868700 3.183200 8.485200
C 5.589900 2.674100 8.378500
C 4.813700 2.922100 7.245500
C 3.411800 2.475900 7.175400
C 2.425900 3.404800 6.940400
C 1.069200 3.035500 6.975400
C 0.074100 4.021300 6.869600
C -1.259300 3.698800 6.985900
C -2.241600 4.797000 6.998800
C -3.282000 4.835400 7.927800
C -4.106100 5.942600 8.030800
C -3.893700 7.051700 7.213800
C -2.877400 7.011100 6.261100
C -2.080800 5.890500 6.144500
C -1.618300 2.351500 7.157100
C -0.676200 1.336900 7.224000
C -1.045500 -0.067600 7.402200
C -2.363800 -0.497700 7.420200
C -2.709400 -1.840200 7.644600
C -4.104400 -2.315600 7.676200
C -4.493400 -3.207600 8.678200
C -5.747900 -3.782600 8.674200
C -6.655400 -3.465700 7.665400
C -6.299400 -2.534700 6.692400
C -5.033300 -1.976200 6.694400
C -1.708500 -2.765100 7.828800
C -0.357000 -2.390200 7.752600
C 0.642700 -3.370400 7.857000
C 1.975700 -3.052800 7.705200
C 2.974600 -4.128900 7.775700
C 2.623100 -5.415000 7.350800
C 3.461100 -6.487500 7.551000
C 4.722500 -6.298900 8.121800
C 5.130900 -5.005000 8.448400
C 4.256600 -3.944000 8.300600
C 2.320200 -1.703900 7.513800
C 1.372300 -0.695000 7.469900
C 1.738200 0.709900 7.323000
C 3.054700 1.135200 7.375900
C 0.705300 1.675200 7.163400
C -0.007500 -1.030700 7.545000
C 5.362900 3.676500 6.208000
C 6.637500 4.191900 6.308400
H 7.427900 3.034600 9.396700
H 5.173600 2.108700 9.198700
H 2.681200 4.442200 6.790500
H 0.378900 5.050400 6.761800
H -3.423300 4.013600 8.612800
H -4.869700 5.982800 8.791000
H -2.740200 7.855800 5.606000
H -1.315900 5.866300 5.385400
H -2.668100 2.123500 7.237100
H -3.169700 0.204200 7.285900
H -3.810400 -3.443700 9.479800
H -6.045900 -4.446400 9.469700
H -7.006400 -2.298600 5.913000
H -4.753500 -1.289900 5.911100
H -1.947100 -3.804400 7.994600
H 0.336400 -4.381900 8.072100
H 1.676300 -5.576800 6.862700
H 3.171200 -7.475400 7.230500
H 6.108300 -4.857100 8.880000
H 4.565800 -2.966700 8.635600
H 3.362300 -1.470100 7.377400
H 3.851000 0.434700 7.563900
H 4.783100 3.857300 5.317300
H 7.065400 4.759100 5.498600
C 9.186100 5.190500 4.136900
C 8.367000 5.335200 3.014500
C 7.915200 4.216600 2.341700
C 8.277900 2.938900 2.764000
C 7.897000 1.718500 2.042600
C 7.507700 0.587100 2.719800
C 7.434300 -0.648900 2.054100
C 7.242700 -1.822500 2.797100
C 7.479000 -3.055400 2.231500
C 7.576100 -4.141800 3.229100
C 8.829300 -4.671200 3.539400
C 9.035200 -5.322800 4.740100
C 7.966700 -5.519900 5.615800
C 6.677600 -5.150500 5.229000
C 6.496800 -4.431100 4.065000
C 7.760300 -3.149500 0.861600
C 7.821200 -2.020900 0.054500
C 8.102500 -2.090300 -1.380600
C 8.070800 -3.276000 -2.100500
C 8.440100 -3.322000 -3.453300
C 8.362700 -4.520000 -4.309800
C 9.486600 -4.908900 -5.043100
C 9.381500 -5.827000 -6.064700
C 8.135600 -6.380800 -6.378400
C 7.032600 -6.083100 -5.575400
C 7.147100 -5.158400 -4.555300
C 8.842900 -2.170100 -4.091600
C 8.773000 -0.928300 -3.441300
C 9.044000 0.256700 -4.149600
C 8.841500 1.490600 -3.568000
C 9.069400 2.739200 -4.299600
C 8.964000 2.795900 -5.693000
C 9.174800 3.973500 -6.373100
C 9.484600 5.151500 -5.688700
C 9.584600 5.105600 -4.292700
C 9.391500 3.920300 -3.621400
C 8.420400 1.529800 -2.228000
C 8.266400 0.391400 -1.463800
C 7.976600 0.462600 -0.041600
C 8.080400 1.651800 0.655100
C 7.717700 -0.739600 0.666400
C 8.389300 -0.882300 -2.075700
C 9.114500 2.805900 3.874700
C 9.561700 3.913300 4.557000
H 8.050100 6.321500 2.714400
H 7.259500 4.333100 1.493400
H 7.318900 0.621100 3.781400
H 7.025400 -1.744200 3.851000
H 9.664400 -4.499500 2.877400
H 10.019500 -5.675500 5.010100
H 5.855300 -5.349500 5.896100
H 5.516000 -4.060100 3.814800
H 7.950200 -4.126600 0.447900
H 7.772700 -4.196800 -1.626600
H 10.447200 -4.468200 -4.822200
H 10.260800 -6.126800 -6.615300
H 6.079100 -6.525300 -5.817900
H 6.276300 -4.884500 -3.981100
H 9.148100 -2.202600 -5.126700
H 9.414300 0.169300 -5.158900
H 8.702200 1.911200 -6.249400
H 9.131900 3.997200 -7.448900
H 9.770500 6.006500 -3.730200
H 9.512200 3.915000 -2.550700
H 8.194700 2.489200 -1.798100
H 8.391500 2.552600 0.154600
H 9.436800 1.824700 4.184700
H 10.243200 3.812800 5.384800
C 6.673600 7.532800 -5.846400
C 6.458000 8.632900 -5.009300
C 5.739300 8.478300 -3.842900
C 5.170400 7.242600 -3.526800
C 3.957600 7.229600 -2.680100
C 2.802500 7.091500 -3.418800
C 1.550400 7.357400 -2.846700
C 0.408400 7.435000 -3.665900
C -0.800300 7.820200 -3.136400
C -1.991200 8.045100 -3.961700
C -3.252300 7.637600 -3.520500
C -4.383600 7.917600 -4.254500
C -4.276700 8.603200 -5.469400
C -3.016200 8.994000 -5.927000
C -1.890700 8.725500 -5.176400
C -0.890200 8.070800 -1.759800
C 0.199900 7.978600 -0.918900
C 0.087700 8.250600 0.504000
C -1.129600 8.524700 1.094400
C -1.259900 8.768900 2.467800
C -2.596600 8.975600 3.036200
C -2.823900 9.923900 4.034100
C -4.067700 10.042900 4.620800
C -5.116700 9.228000 4.198700
C -4.915300 8.321600 3.159400
C -3.662100 8.185800 2.602400
C -0.135500 8.742500 3.257400
C 1.117900 8.424200 2.702200
C 2.234400 8.281000 3.537400
C 3.453600 7.888700 3.030200
C 4.535200 7.671000 4.000200
C 4.223700 7.017800 5.196400
C 5.150800 6.894000 6.204200
C 6.443900 7.395300 6.029100
C 6.777500 8.007800 4.821000
C 5.831900 8.148700 3.822700
C 3.597500 7.700600 1.645700
C 2.530500 7.853300 0.774300
C 2.653100 7.644300 -0.669800
C 3.877900 7.496800 -1.308200
C 1.469000 7.644100 -1.458700
C 1.252400 8.180000 1.310100
C 5.545000 6.122000 -4.270000
C 6.325300 6.255100 -5.401500
H 6.834700 9.604600 -5.291900
H 5.531600 9.339800 -3.226500
H 2.860100 6.873200 -4.473800
H 0.506200 7.211600 -4.716500
H -3.339200 7.078100 -2.603000
H -5.346500 7.562200 -3.924500
H -2.943700 9.549700 -6.848200
H -0.926800 9.066600 -5.520200
H -1.843200 8.398300 -1.382700
H -2.026000 8.577300 0.502100
H -2.024900 10.578800 4.346500
H -4.247500 10.791300 5.376000
H -5.730700 7.690300 2.845200
H -3.499500 7.438200 1.843300
H -0.202300 8.913400 4.321000
H 2.121600 8.487800 4.590500
H 3.237500 6.603100 5.328100
H 4.902200 6.375000 7.116600
H 7.760200 8.434200 4.702700
H 6.090600 8.673500 2.916100
H 4.562500 7.392900 1.278400
H 4.798700 7.597800 -0.757400
H 5.171400 5.149500 -3.991600
H 6.568100 5.401000 -6.014000
C -6.515200 5.881300 -6.988500
C -7.762600 5.336100 -6.670500
C -7.881000 4.472300 -5.603300
C -6.768900 4.130000 -4.832000
C -6.885000 2.986300 -3.902900
C -7.128000 1.775100 -4.507600
C -7.227400 0.599700 -3.748800
C -7.422900 -0.636700 -4.393500
C -7.530700 -1.795700 -3.662100
C -7.729000 -3.113800 -4.272700
C -7.135400 -4.242000 -3.701000
C -7.377900 -5.501500 -4.203000
C -8.182700 -5.653900 -5.333200
C -8.747900 -4.531000 -5.938000
C -8.537600 -3.279500 -5.398300
C -7.466500 -1.715200 -2.263800
C -7.280000 -0.524500 -1.594100
C -7.229300 -0.473600 -0.143600
C -7.435000 -1.600100 0.630400
C -7.429400 -1.554700 2.029600
C -7.755900 -2.754900 2.806900
C -8.693400 -2.661300 3.836200
C -9.011800 -3.764200 4.597200
C -8.400500 -4.990200 4.336800
C -7.487900 -5.099700 3.286600
C -7.164600 -3.987400 2.537300
C -7.161500 -0.363700 2.656400
C -6.931600 0.799500 1.902800
C -6.692400 2.008800 2.562300
C -6.582800 3.191200 1.864500
C -6.479600 4.361400 2.757100
C -5.549100 4.290800 3.799200
C -5.687000 5.070400 4.924200
C -6.736900 5.985300 5.009600
C -7.566800 6.182000 3.907200
C -7.445500 5.364100 2.795000
C -6.667300 3.175100 0.464900
C -6.838300 1.990200 -0.242100
C -6.906100 1.936300 -1.705900
C -6.756000 3.058500 -2.509500
C -7.134700 0.678200 -2.333200
C -6.989200 0.775000 0.485900
C -5.547900 4.743700 -5.101300
C -5.420200 5.614800 -6.167000
H -8.631700 5.603500 -7.253100
H -8.842200 4.035500 -5.377300
H -7.225500 1.716200 -5.581100
H -7.461200 -0.656200 -5.471700
H -6.464700 -4.130000 -2.864600
H -6.904900 -6.369100 -3.770700
H -9.390900 -4.660700 -6.793800
H -9.024500 -2.424700 -5.840700
H -7.602200 -2.629100 -1.713600
H -7.662200 -2.548600 0.175500
H -9.191600 -1.721900 4.020700
H -9.770200 -3.703500 5.360200
H -6.998600 -6.043900 3.108600
H -6.432100 -4.066400 1.750100
H -7.130500 -0.300400 3.732600
H -6.657800 2.009500 3.640300
H -4.747900 3.571200 3.745900
H -5.001400 4.976200 5.749600
H -8.371200 6.897900 3.970400
H -8.158400 5.457900 1.990100
H -6.587200 4.115600 -0.054500
H -6.560700 4.024800 -2.075200
H -4.683800 4.496600 -4.505700
H -4.461400 6.031200 -6.429000
C -6.179100 -4.766900 -8.704300
C -5.637900 -4.292500 -9.902800
C -4.523800 -3.477600 -9.884900
C -3.923100 -3.112900 -8.680000
C -2.843200 -2.100100 -8.668500
C -3.194300 -0.807700 -8.976200
C -2.252200 0.231500 -8.890600
C -2.657700 1.566000 -9.078500
C -1.773200 2.597800 -8.880000
C -2.226200 3.997900 -8.943400
C -2.942300 4.475400 -10.037500
C -3.372700 5.789100 -10.082800
C -3.136700 6.629300 -9.000800
C -2.428800 6.160600 -7.897200
C -1.959600 4.862400 -7.883600
C -0.435500 2.304000 -8.578600
C 0.027700 1.005100 -8.480400
C 1.435100 0.703700 -8.249200
C 2.419500 1.672700 -8.349800
C 3.777800 1.388200 -8.127900
C 4.827100 2.384900 -8.384300
C 6.040100 1.943800 -8.923400
C 7.056400 2.822400 -9.212800
C 6.901400 4.195500 -8.977700
C 5.698200 4.645600 -8.430100
C 4.679800 3.754500 -8.146400
C 4.125000 0.108500 -7.747200
C 3.171600 -0.923600 -7.719500
C 3.593300 -2.252400 -7.547300
C 2.711600 -3.298700 -7.704900
C 3.243200 -4.671600 -7.732600
C 4.435500 -4.900100 -8.427700
C 4.999600 -6.154500 -8.488600
C 4.367700 -7.237000 -7.874800
C 3.171400 -7.023200 -7.184200
C 2.625200 -5.755300 -7.107900
C 1.352200 -3.016800 -7.925900
C 0.877500 -1.719700 -8.050500
C -0.528100 -1.419500 -8.326300
C -1.514300 -2.394800 -8.333300
C -0.900300 -0.068300 -8.573100
C 1.806600 -0.643200 -7.990500
C -4.439500 -3.626100 -7.491800
C -5.550000 -4.449900 -7.500300
H -6.078900 -4.583600 -10.844900
H -4.120900 -3.109200 -10.816500
H -4.213200 -0.570200 -9.243900
H -3.689200 1.768100 -9.324900
H -3.142900 3.823700 -10.874500
H -3.912400 6.160400 -10.940900
H -2.232000 6.831800 -7.076500
H -1.402700 4.504100 -7.032400
H 0.235300 3.135600 -8.441600
H 2.161700 2.670400 -8.663200
H 6.184200 0.897100 -9.138700
H 7.997700 2.441900 -9.580100
H 5.565500 5.703600 -8.266900
H 3.762300 4.126400 -7.719100
H 5.146600 -0.135500 -7.501800
H 4.633600 -2.442900 -7.333400
H 4.912500 -4.086800 -8.951200
H 5.900700 -6.323600 -9.054600
H 2.708000 -7.850500 -6.669400
H 1.719700 -5.600400 -6.542900
H 0.685300 -3.852900 -8.054700
H -1.276400 -3.417900 -8.094000
H -3.986800 -3.350900 -6.552300
H -5.979200 -4.807300 -6.578400
C 5.974300 -8.476900 5.120800
C 5.897400 -7.801100 3.901200
C 4.682200 -7.662400 3.269300
C 3.524400 -8.223200 3.811100
C 2.247900 -8.072500 3.106000
C 1.071200 -7.781400 3.752100
C -0.121200 -7.613100 3.022500
C -1.308700 -7.296600 3.695600
C -2.498500 -7.164700 3.015100
C -3.672500 -6.903600 3.868300
C -4.794500 -7.728800 3.869600
C -5.736500 -7.637300 4.880400
C -5.560500 -6.724800 5.918600
C -4.486800 -5.835600 5.875800
C -3.569400 -5.915900 4.851700
C -2.519900 -7.331900 1.621800
C -1.365200 -7.601800 0.899300
C -1.349300 -7.734100 -0.562300
C -2.480400 -7.562600 -1.353400
C -2.422700 -7.655200 -2.752200
C -3.514700 -7.482500 -3.729400
C -3.233400 -6.663000 -4.829400
C -3.978100 -6.738700 -5.981700
C -5.077000 -7.599200 -6.047400
C -5.448000 -8.313700 -4.908200
C -4.664800 -8.265700 -3.765500
C -1.224200 -7.960300 -3.358600
C -0.061600 -8.158000 -2.608900
C 1.140700 -8.452300 -3.271400
C 2.310400 -8.592600 -2.565400
C 3.567100 -8.855800 -3.270800
C 3.582700 -9.749500 -4.342800
C 4.725600 -9.931500 -5.086700
C 5.890400 -9.233300 -4.765600
C 5.903000 -8.390700 -3.652800
C 4.747200 -8.197700 -2.924700
C 2.276400 -8.456800 -1.172100
C 1.106500 -8.195400 -0.483700
C 1.086700 -8.059800 0.961600
C 2.234700 -8.210100 1.711700
C -0.138800 -7.755100 1.609300
C -0.108500 -8.029200 -1.197700
C 3.616900 -8.932600 5.008400
C 4.824600 -9.048900 5.665100
H 6.783400 -7.344800 3.490000
H 4.622400 -7.093500 2.355600
H 1.046000 -7.659000 4.823400
H -1.284700 -7.197300 4.769700
H -4.901900 -8.492700 3.114700
H -6.560100 -8.332700 4.920400
H -4.392600 -5.088700 6.647600
H -2.739200 -5.228100 4.826300
H -3.467800 -7.227100 1.120200
H -3.431200 -7.327000 -0.904500
H -2.385400 -5.998500 -4.787200
H -3.726000 -6.136500 -6.839200
H -6.289100 -8.986500 -4.957800
H -4.915300 -8.896500 -2.926400
H -1.170300 -8.072800 -4.430100
H 1.130600 -8.533100 -4.346600
H 2.696600 -10.316400 -4.582600
H 4.747000 -10.649200 -5.889200
H 6.801200 -7.845600 -3.409700
H 4.747900 -7.505500 -2.098100
H 3.204200 -8.596500 -0.645400
H 3.163300 -8.478900 1.239900
H 2.740200 -9.415500 5.412400
H 4.904000 -9.627000 6.572300
Zn 9.365400 6.479500 6.988300
C 13.347700 4.108700 8.454000
C 12.062300 3.599100 8.553200
C 11.002300 4.335100 8.025000
H 11.881600 2.650300 9.032700
N 11.191700 5.521600 7.423400
C 9.645800 3.833300 8.047900
C 12.422500 5.996900 7.319900
C 13.533300 5.327800 7.817900
H 12.531700 6.948300 6.822300
H 14.516800 5.755700 7.711800
H 14.188200 3.567200 8.859000
N 8.696100 4.489400 7.491000
H 9.490500 2.854400 8.494400
C 8.488700 7.617700 11.680600
C 7.555400 7.708700 10.660300
C 7.943300 7.386200 9.360200
H 6.546100 8.028600 10.864800
N 9.187500 6.978200 9.066400
C 7.024900 7.510000 8.252000
C 10.077300 6.907600 10.044200
C 9.778600 7.216500 11.364600
H 11.075400 6.601000 9.771700
H 10.541000 7.144600 12.123200
H 8.221900 7.859900 12.697500
N 7.394000 7.277400 7.048100
H 6.018700 7.850300 8.487300
C 11.392100 10.655400 5.431600
C 11.032400 9.610000 4.594100
C 10.450200 8.473400 5.151400
H 11.203700 9.672200 3.531100
N 10.223100 8.360800 6.471100
C 10.059500 7.337400 4.340400
C 10.565300 9.362400 7.263800
C 11.153400 10.530000 6.792100
H 10.366600 9.235500 8.316900
H 11.415800 11.319400 7.477500
H 11.847600 11.549100 5.034500
N 9.602900 6.281500 4.898400
H 10.191900 7.414700 3.263400
Zn 7.533500 -7.841300 7.771200
C 6.048700 -11.796600 10.165200
C 5.263500 -10.674900 9.946400
C 5.801000 -9.607200 9.228600
H 4.256000 -10.625300 10.328100
N 7.052500 -9.633600 8.742300
C 5.033600 -8.408400 8.967600
C 7.795700 -10.707700 8.951100
C 7.339000 -11.814700 9.655800
H 8.793700 -10.692300 8.541200
H 7.980800 -12.668600 9.799800
H 5.664300 -12.639300 10.718300
N 5.553200 -7.395900 8.378900
H 4.000600 -8.401500 9.310600
C 10.066200 -5.591700 11.247800
C 10.010100 -5.174700 9.926100
C 9.180100 -5.859100 9.040800
H 10.596800 -4.336000 9.586700
N 8.437300 -6.909400 9.427700
C 9.030000 -5.450400 7.660000
C 8.486400 -7.296500 10.691900
C 9.285100 -6.668800 11.640400
H 7.870100 -8.140000 10.963800
H 9.295500 -7.021900 12.658800
H 10.702800 -5.088500 11.958700
N 8.148600 -6.005500 6.917600
H 9.644600 -4.625800 7.305600
C 11.865300 -9.370900 5.977500
C 10.691700 -9.299200 5.244100
C 9.521100 -8.894900 5.884000
H 10.678200 -9.557200 4.197100
N 9.495800 -8.558300 7.183500
C 8.256100 -8.840100 5.187700
C 10.618100 -8.644800 7.881000
C 11.826100 -9.044600 7.325500
H 10.556800 -8.391600 8.928300
H 12.711400 -9.098800 7.938000
H 12.789200 -9.680300 5.514500
N 7.178800 -8.561500 5.819100
H 8.256500 -9.082600 4.127600
Zn -8.441400 -6.161800 7.242800
C -12.643200 -3.887700 8.209100
C -11.415400 -3.242800 8.161200
C -10.275100 -3.990100 7.877400
H -11.343700 -2.182100 8.343200
N -10.327400 -5.311700 7.645300
C -8.957500 -3.380900 7.833200
C -11.500700 -5.921900 7.691000
C -12.686900 -5.252800 7.969800
H -11.501100 -6.984000 7.498500
H -13.619400 -5.792800 7.996500
H -13.546100 -3.339200 8.427500
N -7.915400 -4.094400 7.662400
H -8.899800 -2.304200 7.982800
C -6.989800 -7.342700 11.727900
C -6.158700 -7.320400 10.617700
C -6.696000 -6.962200 9.382900
H -5.115400 -7.579400 10.705600
N -7.989400 -6.633900 9.237400
C -5.887500 -6.930900 8.180200
C -8.778100 -6.654500 10.300300
C -8.325100 -7.002600 11.566800
H -9.810700 -6.382700 10.140400
H -9.005000 -7.004900 12.403200
H -6.607000 -7.617300 12.698300
N -6.418400 -6.741500 7.033500
H -4.819500 -7.107200 8.292900
C -9.942800 -10.613400 5.866900
C -9.658900 -9.578000 4.989300
C -9.260800 -8.347300 5.507600
H -9.749100 -9.719000 3.923800
N -9.135600 -8.134400 6.828000
C -8.970000 -7.216800 4.649900
C -9.410300 -9.126100 7.660200
C -9.818400 -10.382500 7.229000
H -9.304300 -8.917600 8.714000
H -10.031500 -11.158100 7.946500
H -10.255400 -11.578600 5.500200
N -8.705700 -6.074900 5.160200
H -9.018700 -7.371600 3.574300
Zn -6.731600 8.633600 6.821200
C -5.012700 12.791800 8.637900
C -4.239200 11.656800 8.443000
C -4.844300 10.510900 7.931500
H -3.188300 11.658800 8.685800
N -6.149000 10.474100 7.618700
C -4.096600 9.284700 7.724700
C -6.883000 11.559200 7.805800
C -6.360600 12.742400 8.314000
H -7.927100 11.487800 7.540200
H -6.996600 13.602100 8.449800
H -4.575900 13.695700 9.032800
N -4.683300 8.208200 7.372400
H -3.025900 9.317200 7.918600
C -8.121800 6.315500 10.849300
C -7.851100 5.692900 9.639800
C -7.481400 6.477100 8.548700
H -7.927900 4.621700 9.541800
N -7.372700 7.812500 8.635300
C -7.202700 5.896800 7.250400
C -7.631300 8.402000 9.791800
C -8.011300 7.696100 10.927000
H -7.532600 9.476900 9.819900
H -8.212500 8.220600 11.846900
H -8.411800 5.740400 11.714700
N -6.999900 6.637500 6.227700
H -7.205400 4.811300 7.174500
C -11.059400 9.912700 4.949600
C -9.875800 9.881400 4.226900
C -8.699800 9.518800 4.879700
H -9.862200 10.139800 3.179800
N -8.677700 9.188300 6.181400
C -7.421900 9.491200 4.195000
C -9.810300 9.218600 6.865200
C -11.026000 9.576700 6.294800
H -9.752400 8.947300 7.908600
H -11.922400 9.589100 6.893300
H -11.987500 10.193000 4.476400
N -6.349300 9.291400 4.857300
H -7.413700 9.676300 3.123000
Zn 8.709700 6.862300 -8.245800
C 11.415700 10.744600 -6.822800
C 11.333900 9.541500 -6.142000
C 10.495500 8.540000 -6.635000
H 11.912000 9.375100 -5.246900
N 9.759600 8.707100 -7.746000
C 10.385600 7.268400 -5.962900
C 9.849000 9.858700 -8.392600
C 10.657200 10.906300 -7.973400
H 9.258200 9.958900 -9.289000
H 10.692100 11.823300 -8.538800
H 12.056300 11.537600 -6.469800
N 9.638600 6.326800 -6.413800
H 10.980800 7.151100 -5.061000
C 12.059400 5.765400 -11.599100
C 10.816400 5.162200 -11.504300
C 9.992800 5.478600 -10.422000
H 10.487300 4.458400 -12.252800
N 10.362000 6.357900 -9.476700
C 8.723800 4.815800 -10.235000
C 11.558900 6.915300 -9.565200
C 12.443500 6.651000 -10.601900
H 11.837000 7.598800 -8.778900
H 13.409000 7.129300 -10.626500
H 12.718000 5.545700 -12.424700
N 7.964600 5.065200 -9.228400
H 8.468900 4.054600 -10.969300
C 6.392900 9.828200 -11.383300
C 6.113600 9.731700 -10.029400
C 6.803900 8.792600 -9.263400
H 5.377000 10.372300 -9.571100
N 7.727800 7.976200 -9.795800
C 6.531300 8.626300 -7.855000
C 7.982500 8.068800 -11.090700
C 7.344200 8.976700 -11.926000
H 8.727800 7.398000 -11.488800
H 7.593900 9.014700 -12.973800
H 5.883500 10.548700 -12.003800
N 7.078800 7.685700 -7.177000
H 5.796900 9.295600 -7.411600
Zn 6.998600 -9.074900 -7.696400
C 8.707400 -8.028600 -12.135900
C 8.971600 -7.280700 -10.999200
C 8.363400 -7.642800 -9.797800
H 9.637600 -6.433300 -11.039700
N 7.530100 -8.692500 -9.708800
C 8.570200 -6.880800 -8.587500
C 7.272000 -9.394300 -10.800700
C 7.835500 -9.103200 -12.036500
H 6.590800 -10.224100 -10.692300
H 7.598100 -9.707300 -12.897000
H 9.167700 -7.778900 -13.079100
N 7.944300 -7.176600 -7.508500
H 9.233800 -6.022100 -8.652200
C 11.590000 -10.274100 -6.423300
C 10.575800 -9.988500 -5.522700
C 9.289100 -9.762900 -6.007500
H 10.774500 -9.945600 -4.463700
N 9.003100 -9.799600 -7.319300
C 8.169100 -9.533700 -5.121400
C 9.971900 -10.094300 -8.171100
C 11.279900 -10.339500 -7.773800
H 9.699900 -10.145100 -9.214500
H 12.032800 -10.577000 -8.507700
H 12.598200 -10.452100 -6.082900
N 6.994000 -9.389200 -5.603600
H 8.359700 -9.557900 -4.051100
C 4.685900 -13.171500 -8.898600
C 4.060900 -11.937500 -8.793100
C 4.818600 -10.830600 -8.415300
H 3.007600 -11.834700 -9.000200
N 6.133900 -10.925900 -8.153400
C 4.232300 -9.511500 -8.282900
C 6.725100 -12.104900 -8.253400
C 6.042400 -13.258300 -8.621300
H 7.780400 -12.134800 -8.029700
H 6.564600 -14.198800 -8.687300
H 4.128600 -14.048500 -9.188500
N 4.958300 -8.499400 -7.989200
H 3.164200 -9.420700 -8.467700
Zn -7.776900 -7.461700 -7.812900
C -9.411500 -11.545900 -5.711100
C -9.334900 -10.316700 -5.072700
C -8.829000 -9.225900 -5.776600
H -9.665800 -10.203100 -4.052600
N -8.408600 -9.330500 -7.049100
C -8.718000 -7.908700 -5.181300
C -8.478700 -10.506300 -7.651000
C -8.973100 -11.643800 -7.023600
H -8.126600 -10.547400 -8.670500
H -9.011500 -12.581400 -7.553900
H -9.802100 -12.410400 -5.197400
N -8.373200 -6.912100 -5.904200
H -8.950300 -7.804400 -4.123900
C -11.848000 -6.173100 -10.150100
C -10.664400 -5.452600 -10.196800
C -9.573700 -5.898800 -9.451900
H -10.586600 -4.560900 -10.798800
N -9.633900 -7.005400 -8.694400
C -8.323800 -5.170300 -9.438200
C -10.768700 -7.684600 -8.647800
C -11.903500 -7.308800 -9.355300
H -10.779300 -8.566200 -8.025400
H -12.805000 -7.895600 -9.287700
H -12.708500 -5.856400 -10.718500
N -7.357700 -5.522000 -8.676000
H -8.263300 -4.289800 -10.074300
C -5.545300 -8.786300 -11.921200
C -4.895600 -8.516100 -10.726700
C -5.657900 -8.228400 -9.596000
H -3.819000 -8.530400 -10.670200
N -6.999400 -8.193300 -9.631600
C -5.045200 -7.990900 -8.307900
C -7.614700 -8.467900 -10.770900
C -6.932300 -8.770700 -11.942100
H -8.694000 -8.450000 -10.754900
H -7.479600 -8.988400 -12.845000
H -4.987200 -9.010900 -12.816800
N -5.754600 -7.784400 -7.261800
H -3.959800 -8.049300 -8.259000
Zn -5.546900 8.608000 -8.337500
C -9.939800 10.144200 -6.844900
C -8.882900 9.847700 -5.998800
C -7.660100 9.473200 -6.553700
H -9.000500 9.908500 -4.928700
N -7.477100 9.381600 -7.881800
C -6.507500 9.188800 -5.729300
C -8.487200 9.677600 -8.683800
C -9.736400 10.063500 -8.214900
H -8.299600 9.610600 -9.744400
H -10.526900 10.295600 -8.909900
H -10.899800 10.437300 -6.449700
N -5.385200 8.880500 -6.265300
H -6.627900 9.290500 -4.653700
C -3.332400 12.553900 -10.115500
C -2.838200 11.262700 -10.245200
C -3.525600 10.218700 -9.633000
H -1.939100 11.069600 -10.808600
N -4.648900 10.422100 -8.923800
C -3.053800 8.845200 -9.690000
C -5.111500 11.654600 -8.795800
C -4.486500 12.754300 -9.373400
H -6.013000 11.772800 -8.214300
H -4.900000 13.741500 -9.246100
H -2.827300 13.385100 -10.582100
N -3.624900 7.951900 -8.985200
H -2.187000 8.630200 -10.311700
C -7.204400 7.325000 -12.784800
C -7.319400 6.546800 -11.643900
C -6.800400 7.028100 -10.442600
H -7.802400 5.583200 -11.680400
N -6.187900 8.219100 -10.355500
C -6.899000 6.261200 -9.222300
C -6.086900 8.959500 -11.449000
C -6.577100 8.558500 -12.684400
H -5.602700 9.917700 -11.342600
H -6.472700 9.201200 -13.543400
H -7.596800 6.982500 -13.729500
N -6.340100 6.655400 -8.140500
H -7.453000 5.326600 -9.272800
&END COORD

! Atom Basis Set
! --------------
&KIND C
  BASIS_SET DZVP-MOLOPT-GTH
  POTENTIAL GTH-PBE-q4
&END KIND
&KIND H
  BASIS_SET DZVP-MOLOPT-GTH
  POTENTIAL GTH-PBE-q1
&END KIND
&KIND N
  BASIS_SET DZVP-MOLOPT-GTH
  POTENTIAL GTH-PBE-q5
&END KIND
&KIND O
  BASIS_SET DZVP-MOLOPT-GTH
  POTENTIAL GTH-PBE-q6
&END KIND
&KIND Zn
  BASIS_SET  DZVP-MOLOPT-SR-GTH
  POTENTIAL  GTH-PBE-q12
&END KIND
&END SUBSYS
&END FORCE_EVAL

! Geometry Optimization
! ---------------------
&MOTION
  &GEO_OPT
    OPTIMIZER BFGS
    MAX_ITER 2000
    MAX_DR  [bohr] 0.003
    &BFGS
    &END
  &END GEO_OPT
&END MOTION

