&GLOBAL
  PROJECT_NAME C_cl1_quad2_12_th2_optc_opt
  RUN_TYPE GEO_OPT
  EXTENDED_FFT_LENGTHS
&END GLOBAL

! Force Evaluation
! ----------------
&FORCE_EVAL
  METHOD QS
  &DFT
    BASIS_SET_FILE_NAME BASIS_MOLOPT
    POTENTIAL_FILE_NAME GTH_POTENTIALS
    CHARGE 16
    &QS
      EPS_DEFAULT 1.0E-10
    &END QS
    &MGRID
      NGRIDS 5
     CUTOFF 700
     REL_CUTOFF 60
    &END MGRID
    &SCF
      SCF_GUESS ATOMIC
      EPS_SCF 5.0E-7
      MAX_SCF 300
      &OT
        PRECONDITIONER FULL_SINGLE_INVERSE
        MINIMIZER DIIS
      &END OT
      &OUTER_SCF ! Repeat the inner SCF cycle 10 times
        MAX_SCF 10
        EPS_SCF 5.0E-7 ! Must match the above
      &END
      &PRINT
        &RESTART ON
        FILENAME C_cl1_quad2_12_th2_optc_opt.res
      &END
      &END
    &END SCF

    ! Exchange-Correlation
    ! -------------------
    &XC
      &VDW_POTENTIAL
        POTENTIAL_TYPE PAIR_POTENTIAL
        &PAIR_POTENTIAL
          TYPE DFTD3
          CALCULATE_C9_TERM .TRUE.
          PARAMETER_FILE_NAME dftd3.dat
          REFERENCE_FUNCTIONAL PBE
          R_CUTOFF 10.
          EPS_CN 0.01
        &END PAIR_POTENTIAL
      &END VDW_POTENTIAL
      &XC_FUNCTIONAL PBE
      &END XC_FUNCTIONAL
    &END XC
  &END DFT
  &PRINT
    &FORCES ON
    &END FORCES
  &END PRINT

&SUBSYS
! Cell
! ----
&CELL
  ABC 55.49 55.49 55.49
  ALPHA_BETA_GAMMA 90.0 90.0 90.0
  PERIODIC NONE
&END CELL

! Coordinates
! -----------
&COORD
C 6.746100 4.935000 8.908300
C 6.658800 3.907700 9.859200
C 5.469300 3.237100 10.054500
C 4.323700 3.576300 9.332700
C 3.060000 2.842900 9.473000
C 1.864100 3.521200 9.530800
C 0.644000 2.823300 9.545400
C -0.570100 3.532000 9.523700
C -1.771200 2.864000 9.462400
C -3.030400 3.604800 9.315900
C -4.174100 3.282500 10.047900
C -5.359200 3.960600 9.851100
C -5.442900 4.977600 8.889400
C -4.284700 5.324700 8.187000
C -3.102600 4.652500 8.395400
C -1.776300 1.461000 9.448900
C -0.607500 0.721600 9.445900
C -0.612900 -0.730400 9.302100
C -1.786500 -1.459600 9.252800
C -1.796500 -2.830000 8.958700
C -3.084400 -3.533000 8.830900
C -3.407200 -4.185200 7.640500
C -4.614400 -4.833700 7.505700
C -5.526500 -4.868600 8.562400
C -5.203800 -4.219400 9.759900
C -4.001700 -3.552100 9.881400
C -0.607900 -3.488000 8.750700
C 0.617500 -2.809100 8.890300
C 1.835100 -3.499700 8.742500
C 3.032000 -2.853300 8.940700
C 4.309500 -3.572900 8.803700
C 4.600300 -4.259700 7.624400
C 5.798200 -4.923100 7.479900
C 6.736000 -4.936800 8.513900
C 6.442400 -4.259400 9.703300
C 5.248700 -3.579000 9.835000
C 3.037200 -1.482400 9.235200
C 1.870800 -0.742000 9.295600
C 1.878600 0.710100 9.445400
C 3.053500 1.439700 9.454400
C 0.638500 1.403200 9.490700
C 0.625400 -1.414200 9.163400
C 4.398500 4.636800 8.427100
C 5.584600 5.302000 8.221000
H 7.506700 3.651200 10.474600
H 5.420000 2.455800 10.797900
H 1.846400 4.599400 9.568700
H -0.543300 4.610200 9.558100
H -4.126300 2.510400 10.800900
H -6.206100 3.723300 10.475700
H -4.331600 6.117200 7.458600
H -2.228700 4.916400 7.821800
H -2.734500 0.973600 9.385400
H -2.740200 -0.982700 9.406200
H -2.710300 -4.161400 6.818000
H -4.892300 -5.299000 6.576000
H -5.866800 -4.279000 10.609700
H -3.756700 -3.065200 10.813600
H -0.600100 -4.541200 8.516600
H 1.815100 -4.553200 8.510700
H 3.886900 -4.250000 6.816000
H 6.049600 -5.415800 6.557200
H 7.122000 -4.305300 10.540700
H 5.027500 -3.070600 10.761600
H 3.996600 -1.014200 9.379400
H 4.007900 0.944400 9.392600
H 3.523700 4.915600 7.862000
H 5.633700 6.106500 7.505900
C 8.756600 6.047500 4.964600
C 9.585200 5.901300 3.843400
C 9.613300 4.711500 3.147700
C 8.829300 3.625100 3.543600
C 8.816900 2.374800 2.775900
C 8.815500 1.154900 3.413600
C 8.810300 -0.041100 2.673300
C 8.838600 -1.280200 3.337300
C 8.877500 -2.463100 2.631000
C 8.897700 -3.757500 3.322400
C 8.327600 -4.893300 2.739500
C 8.313500 -6.103900 3.396800
C 8.820900 -6.207500 4.696400
C 9.392900 -5.080000 5.287100
C 9.453100 -3.887200 4.599400
C 8.861000 -2.406400 1.226300
C 8.774900 -1.216300 0.529300
C 8.671300 -1.175300 -0.926500
C 8.634900 -2.324600 -1.693600
C 8.521600 -2.292100 -3.092700
C 8.558700 -3.547500 -3.855800
C 9.261700 -3.608000 -5.061200
C 9.346500 -4.783300 -5.775400
C 8.750800 -5.944800 -5.283600
C 8.040200 -5.897000 -4.083300
C 7.934800 -4.707000 -3.391300
C 8.423300 -1.073600 -3.725300
C 8.465400 0.125200 -2.990000
C 8.424700 1.363600 -3.655800
C 8.521000 2.544800 -2.955300
C 8.572400 3.835800 -3.655900
C 9.301600 3.947600 -4.841900
C 9.390000 5.148900 -5.510400
C 8.769300 6.284700 -4.990900
C 8.041800 6.188400 -3.804000
C 7.935000 4.972900 -3.157000
C 8.616100 2.500700 -1.555200
C 8.647700 1.309500 -0.854100
C 8.736500 1.267600 0.602800
C 8.780400 2.414800 1.372700
C 8.768900 0.005200 1.253700
C 8.590600 0.086200 -1.574700
C 8.051700 3.754600 4.696400
C 8.023300 4.938600 5.398400
H 10.242100 6.702300 3.542300
H 10.273400 4.613600 2.299500
H 8.862400 1.098100 4.490100
H 8.813400 -1.280500 4.415500
H 7.861500 -4.824200 1.770400
H 7.845500 -6.960600 2.938000
H 9.824700 -5.163800 6.270600
H 9.948700 -3.047400 5.059200
H 8.941300 -3.335000 0.689200
H 8.731400 -3.291500 -1.230700
H 9.775800 -2.733200 -5.426300
H 9.924500 -4.831500 -6.683500
H 7.539500 -6.786000 -3.732300
H 7.350700 -4.673800 -2.485500
H 8.309500 -1.019400 -4.796900
H 8.316400 1.370700 -4.729300
H 9.831400 3.091100 -5.228000
H 9.986800 5.235900 -6.403300
H 7.528000 7.060100 -3.429400
H 7.338300 4.902200 -2.261500
H 8.701500 3.440300 -1.036700
H 8.759000 3.386300 0.909200
H 7.444000 2.927100 5.025600
H 7.404000 5.026400 6.275600
C -4.340600 8.461600 -6.104400
C -3.046500 7.950500 -5.960800
C -2.381900 8.074800 -4.761200
C -2.960100 8.746800 -3.679800
C -2.241000 8.868600 -2.406700
C -2.908000 8.845100 -1.201700
C -2.205300 8.945000 0.012600
C -2.898500 8.915000 1.236800
C -2.221000 9.047500 2.425800
C -2.926200 8.956200 3.712300
C -2.753600 9.906800 4.718400
C -3.384600 9.769500 5.937800
C -4.191800 8.653900 6.193900
C -4.384300 7.716800 5.175100
C -3.767400 7.869800 3.954000
C -0.826000 9.191000 2.415500
C -0.094700 9.151300 1.242900
C 1.364600 9.158700 1.237700
C 2.102000 9.204600 2.406300
C 3.496400 9.060700 2.409100
C 4.207200 8.954800 3.692800
C 4.982100 7.822600 3.944900
C 5.605400 7.653800 5.160700
C 5.490300 8.624000 6.159600
C 4.744500 9.779100 5.895000
C 4.102500 9.930800 4.682700
C 4.168300 8.928000 1.217700
C 3.468600 8.951600 -0.002900
C 4.164900 8.843700 -1.220200
C 3.486700 8.810300 -2.416900
C 4.201900 8.680600 -3.693300
C 5.388800 9.379800 -3.915800
C 6.069100 9.259200 -5.109400
C 5.570500 8.444800 -6.126300
C 4.375400 7.752600 -5.916400
C 3.712700 7.860500 -4.711900
C 2.085300 8.888600 -2.409700
C 1.357200 9.003800 -1.240800
C -0.102100 9.021400 -1.236100
C -0.839400 8.969500 -2.403000
C -0.787300 9.040800 0.007900
C 2.050300 9.043900 -0.001400
C -4.246800 9.269100 -3.838600
C -4.937100 9.111400 -5.021900
H -2.599000 7.401200 -6.773600
H -1.410200 7.621900 -4.651200
H -3.979800 8.729500 -1.165800
H -3.972900 8.813900 1.228300
H -2.138000 10.774700 4.535300
H -3.284400 10.549300 6.677200
H -4.992800 6.848600 5.360200
H -3.907500 7.126400 3.185600
H -0.335700 9.288000 3.369500
H 1.617100 9.303300 3.363000
H 5.065400 7.058500 3.188700
H 6.156000 6.749900 5.356900
H 4.702200 10.576300 6.621400
H 3.532200 10.827800 4.493000
H 5.242100 8.822400 1.205400
H 5.240300 8.761200 -1.194300
H 5.766700 10.049000 -3.158500
H 6.954700 9.845000 -5.287700
H 4.003900 7.096900 -6.687600
H 2.813100 7.289200 -4.548000
H 1.587200 8.880100 -3.363900
H -0.342900 9.028900 -3.355900
H -4.706000 9.819600 -3.032900
H -5.924200 9.528700 -5.138300
C -8.009300 6.399400 -4.825700
C -9.197900 5.672700 -4.824000
C -9.252700 4.448400 -4.185300
C -8.152000 3.967800 -3.481900
C -8.218600 2.663600 -2.790700
C -8.339700 1.496700 -3.503600
C -8.347900 0.253500 -2.842400
C -8.342900 -0.943000 -3.582400
C -8.346800 -2.160500 -2.943800
C -8.215900 -3.417800 -3.695600
C -9.065700 -4.503700 -3.488400
C -8.867000 -5.694700 -4.157800
C -7.793800 -5.839600 -5.046200
C -6.962300 -4.742200 -5.273000
C -7.171700 -3.553000 -4.610600
C -8.376900 -2.203400 -1.542700
C -8.331600 -1.057000 -0.772100
C -8.243100 -1.107200 0.684000
C -8.223000 -2.302500 1.377200
C -8.073700 -2.363600 2.773000
C -7.983300 -3.661900 3.451100
C -8.461300 -3.830100 4.753700
C -8.307800 -5.027000 5.419300
C -7.708100 -6.116300 4.785400
C -7.262800 -5.969800 3.467000
C -7.380300 -4.756400 2.824800
C -7.980200 -1.185700 3.481400
C -8.030300 0.057100 2.825300
C -7.947200 1.250000 3.565900
C -8.011600 2.472500 2.936600
C -7.921100 3.720600 3.702900
C -7.004300 3.839700 4.749600
C -6.872400 5.023200 5.440900
C -7.641700 6.139600 5.099900
C -8.604600 6.005400 4.090800
C -8.734800 4.816100 3.405700
C -8.126400 2.519100 1.537900
C -8.164900 1.374600 0.763800
C -8.214300 1.423700 -0.694200
C -8.138500 2.615500 -1.392600
C -8.306400 0.207000 -1.422200
C -8.145900 0.109600 1.409900
C -6.985700 4.729900 -3.440500
C -6.900500 5.922800 -4.130100
H -10.056100 6.050500 -5.359800
H -10.165400 3.872500 -4.213900
H -8.397800 1.518600 -4.581000
H -8.343300 -0.889400 -4.660200
H -9.902100 -4.408200 -2.812400
H -9.571100 -6.502500 -4.026700
H -6.123200 -4.840400 -5.939600
H -6.500300 -2.724100 -4.768700
H -8.388300 -3.177900 -1.084600
H -8.346400 -3.232700 0.850100
H -8.972100 -3.018800 5.247200
H -8.689100 -5.145200 6.419600
H -6.766700 -6.792500 2.976300
H -6.972300 -4.647900 1.832900
H -7.841300 -1.195400 4.551000
H -7.872000 1.188900 4.640500
H -6.370000 3.004700 5.000000
H -6.144800 5.101900 6.231600
H -9.281400 6.817400 3.873900
H -9.495400 4.727100 2.645000
H -8.158000 3.492000 1.077600
H -8.032900 3.553900 -0.874500
H -6.137700 4.370000 -2.879700
H -6.004500 6.522400 -4.102200
C 6.782600 -4.772400 -8.614300
C 6.315900 -4.064200 -9.726000
C 5.113400 -3.390900 -9.659600
C 4.349200 -3.413400 -8.494100
C 3.064300 -2.686100 -8.442700
C 1.868100 -3.357300 -8.377700
C 0.651000 -2.647200 -8.387500
C -0.576200 -3.335600 -8.396100
C -1.771300 -2.650800 -8.456000
C -3.063700 -3.346500 -8.477400
C -4.196100 -2.760200 -7.903600
C -5.418200 -3.394900 -7.923300
C -5.539000 -4.677100 -8.470000
C -4.412200 -5.275800 -9.035400
C -3.204400 -4.610600 -9.057400
C -1.742000 -1.245900 -8.466100
C -0.566300 -0.526100 -8.394200
C -0.557100 0.927300 -8.274500
C -1.722800 1.665300 -8.211600
C -1.720100 3.049100 -7.985000
C -3.013000 3.748900 -7.921600
C -3.340400 4.575000 -6.846700
C -4.568800 5.200900 -6.788000
C -5.501700 5.012800 -7.807200
C -5.177800 4.190100 -8.890700
C -3.947900 3.569000 -8.942000
C -0.522500 3.706300 -7.831200
C 0.694900 3.009500 -7.961200
C 1.922100 3.697200 -7.895600
C 3.104200 3.033600 -8.121600
C 4.387300 3.758300 -8.162400
C 4.844900 4.484200 -7.063300
C 6.038900 5.173700 -7.123300
C 6.805600 5.148100 -8.289900
C 6.349600 4.423500 -9.396000
C 5.157300 3.734100 -9.325300
C 3.093700 1.647800 -8.334000
C 1.921900 0.914700 -8.316200
C 1.912800 -0.542100 -8.404600
C 3.077600 -1.284900 -8.465900
C 0.668800 -1.226400 -8.389700
C 0.687400 1.605000 -8.179600
C 4.815800 -4.125400 -7.390500
C 6.017500 -4.802500 -7.447400
H 6.870700 -4.083600 -10.652000
H 4.752800 -2.856400 -10.525500
H 1.845200 -4.435900 -8.360200
H -0.560900 -4.413100 -8.346200
H -4.116800 -1.805100 -7.410500
H -6.273500 -2.929600 -7.458600
H -4.507800 -6.244600 -9.496600
H -2.362800 -5.074400 -9.546500
H -2.681100 -0.728200 -8.550500
H -2.683500 1.188700 -8.307100
H -2.634300 4.702000 -6.041800
H -4.844600 5.804500 -5.939800
H -5.871600 4.085300 -9.711500
H -3.698800 2.954800 -9.794100
H -0.498700 4.770900 -7.659100
H 1.917700 4.761800 -7.721600
H 4.266400 4.489400 -6.153200
H 6.415600 5.708200 -6.265300
H 6.903400 4.444900 -10.322500
H 4.804400 3.190600 -10.188800
H 4.044800 1.166500 -8.489300
H 4.040400 -0.803600 -8.507300
H 4.236400 -4.132500 -6.480900
H 6.400500 -5.328900 -6.587100
C -4.181700 -8.156500 5.807000
C -3.311500 -9.232200 5.593200
C -2.701700 -9.403000 4.367700
C -2.944000 -8.516000 3.318600
C -2.246600 -8.643600 2.031700
C -2.920100 -8.554900 0.836000
C -2.224000 -8.638000 -0.384100
C -2.918300 -8.566400 -1.606200
C -2.244400 -8.686600 -2.797700
C -2.968200 -8.606400 -4.078000
C -2.935500 -9.651800 -5.000100
C -3.628200 -9.565900 -6.191300
C -4.353100 -8.408000 -6.495900
C -4.372100 -7.356800 -5.577300
C -3.698500 -7.457000 -4.381400
C -0.849400 -8.821600 -2.797000
C -0.115700 -8.799300 -1.625100
C 1.343200 -8.765100 -1.621500
C 2.074800 -8.640200 -2.787300
C 3.476700 -8.560800 -2.787300
C 4.198400 -8.404300 -4.057300
C 5.392900 -9.088400 -4.287400
C 6.080100 -8.936000 -5.473400
C 5.581000 -8.104300 -6.476200
C 4.379400 -7.426000 -6.258300
C 3.709600 -7.565700 -5.061000
C 4.150600 -8.612700 -1.588500
C 3.449700 -8.717300 -0.373200
C 4.143600 -8.697700 0.851000
C 3.463700 -8.802800 2.041600
C 4.158900 -8.688300 3.331600
C 5.021800 -7.613000 3.542900
C 5.633100 -7.428100 4.762800
C 5.399300 -8.313400 5.815600
C 4.557700 -9.410900 5.598400
C 3.944800 -9.588900 4.374300
C 2.066500 -8.916600 2.031100
C 1.337200 -8.873800 0.858100
C -0.120600 -8.828300 0.856200
C -0.852900 -8.799800 2.027300
C -0.807700 -8.757000 -0.385000
C 2.030600 -8.793100 -0.378700
C -3.840100 -7.467000 3.524500
C -4.451200 -7.289900 4.746800
H -3.152900 -9.958600 6.375900
H -2.045400 -10.246400 4.215500
H -3.993700 -8.449900 0.816500
H -3.990800 -8.448600 -1.595600
H -2.386500 -10.552200 -4.767900
H -3.645100 -10.414100 -6.858700
H -4.898900 -6.457300 -5.844500
H -3.716000 -6.639300 -3.678800
H -0.362800 -8.910500 -3.753900
H 1.576700 -8.616600 -3.741400
H 5.771800 -9.771200 -3.542700
H 6.972100 -9.510200 -5.658500
H 4.006200 -6.756200 -7.016400
H 2.803300 -7.006100 -4.892500
H 5.226600 -8.539100 -1.559700
H 5.219500 -8.616500 0.839800
H 5.180100 -6.900100 2.749500
H 6.266200 -6.571300 4.917900
H 4.422800 -10.147700 6.375800
H 3.309000 -10.447400 4.219200
H 1.573600 -8.988400 2.985800
H -0.362900 -8.854500 2.984500
H -4.026200 -6.766900 2.725700
H -5.110800 -6.452100 4.897700
Zn 8.147300 7.606000 7.725100
C 12.668700 6.091200 8.680600
C 11.537200 5.325200 8.910500
C 10.283400 5.873800 8.638800
H 11.621100 4.322100 9.297500
N 10.143200 7.118500 8.155600
C 9.070400 5.131200 8.889300
C 11.227400 7.845400 7.938200
C 12.511100 7.378400 8.187000
H 11.070100 8.842100 7.555400
H 13.364000 8.010600 8.000700
H 13.652100 5.697200 8.884600
N 7.918900 5.622500 8.605800
H 9.193200 4.143500 9.324200
C 6.518000 9.041500 12.087000
C 5.780100 9.159800 10.920000
C 6.355200 8.757900 9.714900
H 4.778400 9.558800 10.939900
N 7.597600 8.253500 9.654300
C 5.648900 8.885200 8.461400
C 8.299000 8.146000 10.771200
C 7.804900 8.528100 12.011200
H 9.297600 7.747500 10.676300
H 8.416800 8.429400 12.893100
H 6.104000 9.347000 13.035200
N 6.142800 8.415200 7.375300
H 4.684600 9.385500 8.489300
C 8.841800 12.017900 5.800600
C 8.867700 10.839300 5.073100
C 8.764800 9.625100 5.751800
H 8.966700 10.856500 3.999700
N 8.630500 9.566900 7.086600
C 8.815500 8.364300 5.051700
C 8.623200 10.695600 7.777700
C 8.726500 11.945200 7.181600
H 8.535700 10.602100 8.849200
H 8.719300 12.836300 7.788000
H 8.917800 12.974100 5.306900
N 8.628000 7.248700 5.660300
H 9.013400 8.411600 3.984500
Zn -6.861200 -7.559300 7.506900
C -11.271700 -6.555900 9.318300
C -10.177300 -5.714700 9.449200
C -8.960400 -6.100800 8.888500
H -10.262900 -4.777300 9.975800
N -8.819600 -7.261000 8.225500
C -7.776800 -5.275200 8.998100
C -9.867800 -8.058600 8.101900
C -11.114600 -7.751200 8.631600
H -9.710200 -8.980800 7.564200
H -11.939300 -8.434400 8.510400
H -12.225900 -6.287500 9.744000
N -6.698100 -5.598800 8.386700
H -7.856100 -4.378400 9.606900
C -4.660700 -8.283100 11.803800
C -3.998300 -8.263800 10.587000
C -4.746000 -8.166900 9.414500
H -2.922600 -8.321700 10.543400
N -6.085800 -8.081100 9.428300
C -4.122400 -8.195200 8.112200
C -6.713500 -8.121500 10.593000
C -6.046800 -8.222000 11.806800
H -7.791400 -8.079200 10.561500
H -6.604800 -8.256000 12.728500
H -4.113800 -8.354300 12.730900
N -4.794200 -7.957000 7.046600
H -3.063800 -8.440900 8.078000
C -7.377800 -12.062000 5.743800
C -7.569600 -10.910300 4.996500
C -7.451700 -9.672000 5.625800
H -7.808100 -10.968200 3.946500
N -7.152900 -9.563800 6.930800
C -7.661200 -8.433100 4.910200
C -6.982000 -10.666400 7.641900
C -7.083100 -11.938600 7.093800
H -6.756800 -10.531800 8.688800
H -6.936100 -12.808400 7.713200
H -7.460500 -13.036000 5.287200
N -7.527400 -7.302700 5.499000
H -7.966300 -8.509000 3.869400
Zn 8.349200 -7.479700 -8.020200
C 10.056500 -11.727000 -6.393900
C 9.947200 -10.585200 -5.612900
C 9.419400 -9.429500 -6.184500
H 10.267100 -10.588900 -4.583000
N 9.014400 -9.390200 -7.465700
C 9.278000 -8.196300 -5.433500
C 9.117300 -10.482000 -8.205400
C 9.631300 -11.676000 -7.713400
H 8.776700 -10.404900 -9.226800
H 9.695200 -12.542300 -8.351500
H 10.462300 -12.638300 -5.983400
N 8.882300 -7.129500 -6.015800
H 9.546100 -8.213800 -4.379300
C 12.570600 -5.852600 -9.892700
C 11.385600 -5.132900 -9.900100
C 10.254500 -5.691600 -9.306800
H 11.336900 -4.156700 -10.355900
N 10.276300 -6.904200 -8.729300
C 8.995600 -4.980800 -9.262800
C 11.412400 -7.582400 -8.720100
C 12.585400 -7.100700 -9.287900
H 11.393900 -8.551300 -8.245500
H 13.485400 -7.692900 -9.257600
H 13.463000 -5.450800 -10.346500
N 7.992300 -5.466000 -8.632500
H 8.957700 -4.010700 -9.752000
C 6.395600 -8.117600 -12.440600
C 5.665700 -8.093900 -11.262500
C 6.346700 -8.008000 -10.049600
H 4.588800 -8.144700 -11.280400
N 7.686200 -7.935600 -9.987800
C 5.648300 -8.047200 -8.783600
C 8.378200 -7.978500 -11.115300
C 7.779900 -8.068800 -12.365500
H 9.453300 -7.944700 -11.024500
H 8.388100 -8.102600 -13.254800
H 5.900300 -8.181400 -13.396900
N 6.289700 -7.989900 -7.678100
H 4.570500 -8.191400 -8.816600
Zn -7.084400 7.755300 -7.514400
C -5.352000 8.213700 -12.041800
C -4.584900 8.346500 -10.894800
C -5.207000 8.237600 -9.652000
H -3.525300 8.535500 -10.959300
N -6.524000 7.999300 -9.533300
C -4.471500 8.399200 -8.417800
C -7.252300 7.882100 -10.631900
C -6.713100 7.981100 -11.908200
H -8.307600 7.704000 -10.494100
H -7.348300 7.880300 -12.773300
H -4.902400 8.293300 -13.019300
N -5.065600 8.309700 -7.285600
H -3.413900 8.637800 -8.498300
C -9.125900 12.068300 -6.549400
C -9.276400 10.943500 -5.750500
C -8.605200 9.776200 -6.104800
H -9.898500 10.970900 -4.869800
N -7.823100 9.705500 -7.195200
C -8.692900 8.563400 -5.312700
C -7.679000 10.781600 -7.950600
C -8.309000 11.987700 -7.667500
H -7.042200 10.680700 -8.816200
H -8.166500 12.839400 -8.312500
H -9.635200 12.987400 -6.305200
N -7.903300 7.591500 -5.556100
H -9.422200 8.533400 -4.506100
C -11.430600 5.704100 -8.561000
C -10.244800 4.999400 -8.429800
C -9.064600 5.703000 -8.195100
H -10.230800 3.924000 -8.505700
N -9.040500 7.041000 -8.083800
C -7.789100 5.032700 -8.093300
C -10.175000 7.708800 -8.227700
C -11.393600 7.088000 -8.466900
H -10.115200 8.783900 -8.160600
H -12.287700 7.679200 -8.580600
H -12.362800 5.191900 -8.741100
N -6.733100 5.669500 -7.748900
H -7.766300 3.971700 -8.330100
Zn 8.089100 -7.636100 7.458700
C 12.520400 -6.527900 9.161900
C 11.412700 -5.706600 9.305700
C 10.192500 -6.122000 8.773600
H 11.490300 -4.762600 9.821400
N 10.060800 -7.291400 8.125200
C 8.997400 -5.316100 8.899500
C 11.122300 -8.069000 7.987900
C 12.373100 -7.732400 8.489400
H 10.973500 -8.999400 7.462000
H 13.208400 -8.400600 8.357500
H 13.477300 -6.236900 9.566100
N 7.907400 -5.664600 8.322200
H 9.078500 -4.407600 9.490600
C 6.007500 -8.416000 11.805100
C 5.319300 -8.434000 10.602600
C 6.036500 -8.311100 9.413800
H 4.246700 -8.541000 10.582700
N 7.371100 -8.165700 9.398900
C 5.386400 -8.369700 8.124900
C 8.024700 -8.172200 10.549900
C 7.389300 -8.294500 11.778200
H 9.098700 -8.083300 10.494900
H 7.967400 -8.298600 12.688000
H 5.484100 -8.505800 12.743900
N 6.024300 -8.101100 7.046600
H 4.339300 -8.662200 8.114000
C 8.806700 -12.144100 5.758600
C 8.934800 -10.996600 4.991300
C 8.744000 -9.756100 5.598000
H 9.181900 -11.059400 3.943600
N 8.434100 -9.641700 6.899800
C 8.887500 -8.520800 4.860500
C 8.318900 -10.739800 7.628800
C 8.495800 -12.013700 7.104400
H 8.078500 -10.600500 8.671600
H 8.394000 -12.879600 7.738300
H 8.949300 -13.119700 5.320500
N 8.715900 -7.387900 5.434300
H 9.177100 -8.599600 3.815500
Zn -6.834400 7.686900 7.809900
C -11.358500 6.167500 8.736200
C -10.232100 5.376500 8.896500
C -8.975300 5.937900 8.670600
H -10.322500 4.344400 9.195700
N -8.827200 7.217400 8.291200
C -7.764500 5.175700 8.868200
C -9.906000 7.969500 8.145100
C -11.192400 7.492600 8.359300
H -9.741000 8.994900 7.851900
H -12.040600 8.146100 8.235500
H -12.344600 5.764500 8.906800
N -6.612900 5.678100 8.605400
H -7.886200 4.166600 9.251800
C -5.078600 9.006900 12.149200
C -4.363700 9.124100 10.967900
C -4.974900 8.754600 9.770100
H -3.352400 9.498500 10.971300
N -6.231000 8.282600 9.730700
C -4.292700 8.881200 8.503300
C -6.909800 8.173700 10.861500
C -6.378700 8.524700 12.095400
H -7.919000 7.799400 10.782700
H -6.972600 8.426400 12.989500
H -4.636600 9.288800 13.092100
N -4.826200 8.449300 7.419400
H -3.311300 9.347400 8.519500
C -7.523000 12.111400 5.910800
C -7.622100 10.932600 5.189400
C -7.511800 9.717400 5.864700
H -7.782900 10.950700 4.123400
N -7.300800 9.657500 7.189500
C -7.637600 8.455900 5.174800
C -7.221900 10.786700 7.875400
C -7.327300 12.037700 7.282600
H -7.072900 10.692400 8.940200
H -7.261000 12.929400 7.884500
H -7.602900 13.068300 5.419200
N -7.425400 7.340600 5.774700
H -7.915200 8.500600 4.125200
Zn 8.338500 7.876400 -7.685200
C 10.010400 12.106300 -5.971600
C 9.916400 10.947200 -5.214600
C 9.396800 9.798900 -5.807900
H 10.241800 10.932100 -4.186500
N 8.985300 9.782900 -7.087500
C 9.271200 8.548000 -5.083000
C 9.072400 10.891300 -7.804000
C 9.577500 12.079700 -7.289200
H 8.726000 10.832900 -8.824600
H 9.628600 12.960300 -7.908600
H 10.410100 13.012500 -5.544000
N 8.887500 7.491100 -5.689500
H 9.540100 8.545300 -4.028900
C 12.559400 6.339200 -9.624300
C 11.386800 5.599800 -9.623400
C 10.254700 6.132100 -9.007700
H 11.347900 4.628600 -10.090600
N 10.264800 7.338000 -8.415900
C 9.009300 5.399300 -8.955200
C 11.389800 8.034800 -8.413800
C 12.562200 7.580000 -9.004100
H 11.362000 8.997100 -7.926600
H 13.452600 8.186900 -8.979100
H 13.451800 5.958300 -10.095900
N 8.002100 5.863100 -8.314200
H 8.985600 4.430800 -9.448200
C 6.370900 8.566600 -12.091800
C 5.642900 8.513500 -10.913400
C 6.326700 8.416400 -9.703000
H 4.565400 8.551000 -10.929300
N 7.667200 8.359300 -9.643700
C 5.630200 8.427600 -8.435400
C 8.357000 8.431100 -10.771100
C 7.755800 8.535200 -12.018800
H 9.432600 8.410100 -10.682600
H 8.362700 8.592700 -12.907800
H 5.873800 8.640100 -13.046400
N 6.275400 8.358500 -7.332700
H 4.551000 8.561800 -8.463700
Zn -7.067800 -7.406200 -7.807800
C -7.809100 -11.805900 -5.833000
C -7.817900 -10.622700 -5.112400
C -7.717800 -9.413600 -5.799400
H -7.901800 -10.632500 -4.037400
N -7.600400 -9.360800 -7.135800
C -7.782500 -8.145800 -5.110300
C -7.615400 -10.494000 -7.819900
C -7.718500 -11.740000 -7.216000
H -7.550600 -10.411100 -8.893900
H -7.731600 -12.633500 -7.818800
H -7.882700 -12.759100 -5.333300
N -7.556200 -7.040700 -5.719200
H -8.049900 -8.175400 -4.056700
C -11.502900 -5.571100 -8.576600
C -10.331500 -4.837800 -8.687400
C -9.112600 -5.480400 -8.476000
H -10.359900 -3.789200 -8.936900
N -9.042700 -6.784600 -8.163200
C -7.853300 -4.779400 -8.595000
C -10.163000 -7.481000 -8.062000
C -11.417800 -6.919300 -8.260200
H -10.057700 -8.526700 -7.816100
H -12.303900 -7.526500 -8.170100
H -12.462800 -5.104900 -8.735700
N -6.740800 -5.386400 -8.404900
H -7.895900 -3.730100 -8.877200
C -5.994800 -9.100200 -12.262400
C -5.166500 -9.247200 -11.160500
C -5.570800 -8.712400 -9.937800
H -4.225400 -9.767600 -11.244300
N -6.735600 -8.057600 -9.797600
C -4.753700 -8.834400 -8.750100
C -7.519500 -7.917100 -10.853800
C -7.194600 -8.421100 -12.106800
H -8.446300 -7.386400 -10.699200
H -7.868300 -8.286400 -12.937200
H -5.713000 -9.506600 -13.221100
N -5.097400 -8.253300 -7.660800
H -3.840200 -9.416600 -8.837900
&END COORD

! Atom Basis Set
! --------------
&KIND C
  BASIS_SET DZVP-MOLOPT-GTH
  POTENTIAL GTH-PBE-q4
&END KIND
&KIND H
  BASIS_SET DZVP-MOLOPT-GTH
  POTENTIAL GTH-PBE-q1
&END KIND
&KIND N
  BASIS_SET DZVP-MOLOPT-GTH
  POTENTIAL GTH-PBE-q5
&END KIND
&KIND O
  BASIS_SET DZVP-MOLOPT-GTH
  POTENTIAL GTH-PBE-q6
&END KIND
&KIND Zn
  BASIS_SET  DZVP-MOLOPT-SR-GTH
  POTENTIAL  GTH-PBE-q12
&END KIND
&END SUBSYS
&END FORCE_EVAL

! Geometry Optimization
! ---------------------
&MOTION
  &GEO_OPT
    OPTIMIZER BFGS
    MAX_ITER 2000
    MAX_DR  [bohr] 0.003
    &BFGS
    &END
  &END GEO_OPT
&END MOTION

