&GLOBAL
  PROJECT_NAME C_cl1_quad2_12_d2_optc_opt
  RUN_TYPE GEO_OPT
  EXTENDED_FFT_LENGTHS
&END GLOBAL

! Force Evaluation
! ----------------
&FORCE_EVAL
  METHOD QS
  &DFT
    BASIS_SET_FILE_NAME BASIS_MOLOPT
    POTENTIAL_FILE_NAME GTH_POTENTIALS
    CHARGE 16
    &QS
      EPS_DEFAULT 1.0E-10
    &END QS
    &MGRID
      NGRIDS 5
     CUTOFF 700
     REL_CUTOFF 60
    &END MGRID
    &SCF
      SCF_GUESS ATOMIC
      EPS_SCF 5.0E-7
      MAX_SCF 300
      &OT
        PRECONDITIONER FULL_SINGLE_INVERSE
        MINIMIZER DIIS
      &END OT
      &OUTER_SCF ! Repeat the inner SCF cycle 10 times
        MAX_SCF 10
        EPS_SCF 5.0E-7 ! Must match the above
      &END
      &PRINT
        &RESTART ON
        FILENAME C_cl1_quad2_12_d2_optc_opt.res
      &END
      &END
    &END SCF

    ! Exchange-Correlation
    ! -------------------
    &XC
      &VDW_POTENTIAL
        POTENTIAL_TYPE PAIR_POTENTIAL
        &PAIR_POTENTIAL
          TYPE DFTD3
          CALCULATE_C9_TERM .TRUE.
          PARAMETER_FILE_NAME dftd3.dat
          REFERENCE_FUNCTIONAL PBE
          R_CUTOFF 10.
          EPS_CN 0.01
        &END PAIR_POTENTIAL
      &END VDW_POTENTIAL
      &XC_FUNCTIONAL PBE
      &END XC_FUNCTIONAL
    &END XC
  &END DFT
  &PRINT
    &FORCES ON
    &END FORCES
  &END PRINT

&SUBSYS
! Cell
! ----
&CELL
  ABC 56.37 56.37 56.37
  ALPHA_BETA_GAMMA 90.0 90.0 90.0
  PERIODIC NONE
&END CELL

! Coordinates
! -----------
&COORD
C -4.273300 6.662400 7.967400
C -3.379700 6.295600 8.978300
C -2.701600 5.094500 8.899800
C -2.895800 4.241500 7.815000
C -2.356900 2.870400 7.798800
C -3.261800 1.839600 7.708900
C -2.834700 0.502800 7.742400
C -3.783300 -0.532000 7.718100
C -3.389000 -1.849000 7.762100
C -4.411500 -2.902800 7.775300
C -4.292800 -4.020400 8.602500
C -5.281900 -4.981700 8.638400
C -6.431500 -4.829800 7.863000
C -6.565900 -3.708900 7.041500
C -5.556300 -2.772600 6.985900
C -2.018500 -2.148000 7.815700
C -1.047300 -1.162000 7.828300
C 0.378500 -1.474000 7.852900
C 0.852000 -2.777800 7.897800
C 2.219600 -3.066000 7.842200
C 2.800600 -4.427100 7.850700
C 2.921400 -5.162600 9.026600
C 3.710400 -6.297500 9.064700
C 4.415300 -6.696700 7.926600
C 4.238300 -6.005300 6.727600
C 3.422300 -4.894700 6.691400
C 3.121600 -2.033800 7.755400
C 2.693000 -0.698300 7.741100
C 3.639700 0.333200 7.647400
C 3.244200 1.650500 7.630800
C 4.282700 2.684900 7.541200
C 5.350400 2.506800 6.657700
C 6.403200 3.392700 6.628500
C 6.409100 4.506600 7.474100
C 5.327400 4.710600 8.331100
C 4.281300 3.809300 8.365000
C 1.876800 1.953200 7.715400
C 0.908000 0.966700 7.790700
C -0.517100 1.277300 7.829600
C -0.989500 2.579400 7.873700
C -1.448200 0.203000 7.798400
C 1.307500 -0.399100 7.796700
C -3.736000 4.647000 6.776300
C -4.426800 5.835600 6.852900
H -3.278200 6.913200 9.858000
H -2.053800 4.794700 9.709600
H -4.319000 2.045200 7.652800
H -4.830200 -0.272600 7.710100
H -3.432400 -4.125500 9.244600
H -5.201800 -5.828800 9.300000
H -7.438900 -3.621300 6.413900
H -5.645800 -1.935700 6.312500
H -1.741000 -3.188500 7.825300
H 0.172100 -3.610700 7.960700
H 2.434200 -4.822300 9.927800
H 3.851800 -6.823800 9.997000
H 4.751900 -6.350900 5.844300
H 3.292000 -4.355100 5.766700
H 4.180600 -2.233800 7.718600
H 4.686700 0.074500 7.622600
H 5.339900 1.664400 5.984700
H 7.213200 3.261100 5.928500
H 5.349300 5.541000 9.017000
H 3.477100 3.956100 9.069500
H 1.597200 2.992700 7.688700
H -0.310200 3.412200 7.942000
H -3.855200 4.012900 5.912500
H -5.080600 6.148800 6.055200
C 7.520400 6.509200 4.342500
C 8.484700 6.203200 3.376100
C 8.342200 5.084000 2.578000
C 7.236500 4.245400 2.717100
C 7.183800 2.925200 2.060500
C 7.029900 1.833900 2.883000
C 7.087000 0.528300 2.370200
C 7.031300 -0.561400 3.251400
C 7.143000 -1.855000 2.792700
C 7.143200 -2.916000 3.814700
C 8.090500 -3.938500 3.862400
C 8.161700 -4.797600 4.946500
C 7.290200 -4.646200 6.024900
C 6.309800 -3.652100 5.957200
C 6.227200 -2.819100 4.866500
C 7.273300 -2.072400 1.411900
C 7.285200 -1.028200 0.497400
C 7.381700 -1.248100 -0.945100
C 7.386300 -2.517300 -1.506200
C 7.523800 -2.722100 -2.887600
C 7.563400 -4.053700 -3.522000
C 8.582200 -4.321300 -4.439900
C 8.583000 -5.480700 -5.186200
C 7.561700 -6.416000 -5.021900
C 6.571800 -6.185700 -4.067000
C 6.571100 -5.013400 -3.331700
C 7.621900 -1.628400 -3.715100
C 7.553600 -0.323600 -3.201400
C 7.568200 0.767700 -4.084100
C 7.479800 2.060000 -3.618300
C 7.476000 3.148100 -4.609000
C 6.746900 2.983600 -5.790800
C 6.838300 3.897600 -6.816500
C 7.638200 5.034800 -6.675400
C 8.310100 5.246300 -5.471200
C 8.236100 4.308100 -4.458500
C 7.411600 2.273700 -2.232100
C 7.403200 1.228000 -1.321700
C 7.314500 1.448500 0.120200
C 7.336500 2.717600 0.681600
C 7.221500 0.312700 0.974000
C 7.449800 -0.112200 -1.801400
C 6.241500 4.599400 3.633300
C 6.381900 5.706200 4.442800
H 9.383600 6.797700 3.307000
H 9.122600 4.831600 1.876100
H 6.917200 1.966600 3.947000
H 6.958400 -0.363000 4.309100
H 8.814700 -4.033200 3.067400
H 8.944400 -5.537300 5.002700
H 5.594400 -3.573000 6.759000
H 5.446400 -2.076600 4.824700
H 7.354200 -3.092600 1.075900
H 7.309300 -3.391800 -0.882200
H 9.387300 -3.612400 -4.564000
H 9.387700 -5.690200 -5.872900
H 5.772100 -6.901800 -3.958300
H 5.775800 -4.828400 -2.627000
H 7.719300 -1.758600 -4.781800
H 7.671700 0.573200 -5.140300
H 6.101300 2.127000 -5.899900
H 6.263900 3.773400 -7.721400
H 8.939100 6.115200 -5.365000
H 8.810300 4.460800 -3.558000
H 7.334800 3.293100 -1.892400
H 7.457700 3.589100 0.060000
H 5.358000 3.987400 3.718200
H 5.615400 5.976400 5.151500
C -4.358300 8.238700 -6.564500
C -3.253600 7.388100 -6.503700
C -2.535800 7.276500 -5.326800
C -2.894700 8.023600 -4.208200
C -2.295300 7.839000 -2.880200
C -3.156100 7.710800 -1.815600
C -2.667400 7.638800 -0.503700
C -3.573800 7.586500 0.564800
C -3.130500 7.626300 1.866600
C -4.135000 7.710200 2.931700
C -3.971200 8.566400 4.021800
C -4.986900 8.744400 4.938400
C -6.207300 8.091100 4.764000
C -6.373000 7.215700 3.687900
C -5.338500 7.011700 2.803500
C -1.749600 7.679300 2.113500
C -0.818000 7.708900 1.089700
C 0.615600 7.813900 1.343200
C 1.139000 7.852500 2.625200
C 2.510000 8.020700 2.860500
C 3.098600 8.099200 4.203000
C 4.101400 9.047900 4.422200
C 4.848700 9.028600 5.575100
C 4.579500 8.077300 6.558700
C 3.503200 7.204400 6.404200
C 2.780100 7.208100 5.224800
C 3.369300 8.116600 1.790600
C 2.888400 8.057400 0.475700
C 3.786200 8.180500 -0.596100
C 3.340400 8.095900 -1.892200
C 4.332600 8.214400 -2.970600
C 5.174200 9.327900 -2.994400
C 6.195800 9.419700 -3.913500
C 6.397200 8.385100 -4.832000
C 5.526400 7.294100 -4.846800
C 4.505900 7.210800 -3.921800
C 1.975000 7.907200 -2.141300
C 1.046100 7.854400 -1.115600
C -0.387700 7.775800 -1.369200
C -0.914000 7.840000 -2.649600
C -1.271200 7.696100 -0.258600
C 1.498400 7.905900 0.231400
C -3.939400 8.946200 -4.314200
C -4.672600 9.047600 -5.471500
H -3.019400 6.765300 -7.352500
H -1.720700 6.573800 -5.260400
H -4.222300 7.680800 -1.976200
H -4.628400 7.586800 0.339900
H -3.057500 9.128700 4.132400
H -4.873700 9.436600 5.756800
H -7.297600 6.669800 3.589600
H -5.460800 6.303400 2.000500
H -1.432100 7.696700 3.142200
H 0.493700 7.787000 3.484800
H 4.300000 9.800000 3.674900
H 5.624700 9.757100 5.742300
H 3.299600 6.476900 7.174300
H 1.994100 6.484600 5.077700
H 4.431500 8.220900 1.948900
H 4.835400 8.322500 -0.387100
H 5.019500 10.129100 -2.288100
H 6.816100 10.302600 -3.948800
H 5.702700 6.496400 -5.550800
H 3.862200 6.345800 -3.908100
H 1.663700 7.844300 -3.170000
H -0.269400 7.950000 -3.505000
H -4.176100 9.583000 -3.476300
H -5.472200 9.764100 -5.558600
C -7.544800 6.809000 -4.468200
C -8.589600 6.493500 -3.593400
C -8.526200 5.355000 -2.811900
C -7.421100 4.507400 -2.878200
C -7.437200 3.163200 -2.265200
C -7.306500 2.102100 -3.129900
C -7.397600 0.778800 -2.671000
C -7.352000 -0.277000 -3.594700
C -7.473900 -1.585300 -3.184200
C -7.472400 -2.634900 -4.215900
C -8.365400 -3.706500 -4.204300
C -8.396000 -4.622000 -5.242100
C -7.543800 -4.476800 -6.336400
C -6.649400 -3.403400 -6.354100
C -6.599500 -2.517900 -5.301500
C -7.609100 -1.850200 -1.811300
C -7.620600 -0.841900 -0.859600
C -7.718100 -1.117700 0.572100
C -7.700100 -2.406700 1.082300
C -7.822000 -2.670000 2.455900
C -7.760600 -4.024900 3.027400
C -8.649900 -4.390100 4.041500
C -8.498600 -5.574900 4.731000
C -7.452100 -6.442900 4.416800
C -6.611300 -6.121000 3.347900
C -6.758900 -4.927500 2.669900
C -7.946300 -1.612100 3.325900
C -7.900400 -0.287700 2.862100
C -7.903400 0.766100 3.788700
C -7.807000 2.074700 3.374400
C -7.725900 3.110400 4.418400
C -6.874900 2.885000 5.504200
C -6.827200 3.759800 6.565300
C -7.608300 4.918800 6.562300
C -8.442300 5.163600 5.471900
C -8.502000 4.267600 4.418200
C -7.752300 2.348100 1.998700
C -7.744300 1.340500 1.045100
C -7.634000 1.616900 -0.386700
C -7.618500 2.907500 -0.898400
C -7.545300 0.515100 -1.284300
C -7.795000 -0.017100 1.472200
C -6.348200 4.870800 -3.697000
C -6.408500 5.997300 -4.490200
H -9.485000 7.097300 -3.586000
H -9.365200 5.096500 -2.183600
H -7.178200 2.274400 -4.186400
H -7.276700 -0.037000 -4.643500
H -9.071700 -3.807000 -3.394100
H -9.126100 -5.415800 -5.244500
H -5.970500 -3.308900 -7.186500
H -5.870700 -1.723300 -5.310500
H -7.697500 -2.881000 -1.512100
H -7.612200 -3.253500 0.422700
H -9.474000 -3.737700 4.288300
H -9.207800 -5.855100 5.492200
H -5.799700 -6.789100 3.108200
H -6.067800 -4.667800 1.883700
H -8.030300 -1.783200 4.387800
H -7.991100 0.531200 4.838300
H -6.241100 2.012600 5.503600
H -6.156000 3.585800 7.391500
H -9.090300 6.025400 5.488000
H -9.188200 4.452500 3.605600
H -7.679200 3.381000 1.702100
H -7.731300 3.757000 -0.245700
H -5.467900 4.248700 -3.722900
H -5.583700 6.272800 -5.127700
C -4.390300 -6.449200 -7.839800
C -3.531600 -6.131600 -8.896300
C -2.774600 -4.976100 -8.850000
C -2.850300 -4.124600 -7.749500
C -2.253800 -2.777800 -7.757000
C -3.114800 -1.720900 -7.580900
C -2.650500 -0.398000 -7.629200
C -3.564200 0.661300 -7.525000
C -3.139200 1.968200 -7.594900
C -4.155500 3.026900 -7.547700
C -4.123100 4.123300 -8.408900
C -5.153100 5.043900 -8.422400
C -6.255800 4.880500 -7.583900
C -6.287300 3.790100 -6.709900
C -5.243400 2.894300 -6.680400
C -1.768400 2.230300 -7.746500
C -0.828000 1.216400 -7.828400
C 0.601400 1.484000 -7.962400
C 1.113700 2.770500 -7.990900
C 2.485900 3.021800 -8.134500
C 3.048200 4.379100 -8.166200
C 4.048900 4.677300 -9.094300
C 4.735000 5.869700 -9.035000
C 4.425900 6.809100 -8.050300
C 3.360800 6.558900 -7.181500
C 2.689300 5.353100 -7.235300
C 3.356400 1.959800 -8.213400
C 2.889200 0.638400 -8.145800
C 3.805700 -0.425500 -8.161600
C 3.370400 -1.728700 -8.108300
C 4.370900 -2.804900 -8.113900
C 5.494700 -2.697800 -7.292600
C 6.506900 -3.629500 -7.354600
C 6.405600 -4.716800 -8.224800
C 5.266500 -4.854900 -9.016900
C 4.264600 -3.904800 -8.963600
C 1.993600 -1.987800 -8.055300
C 1.055200 -0.970500 -8.017900
C -0.375200 -1.238400 -7.918300
C -0.889300 -2.525700 -7.942200
C -1.265000 -0.137100 -7.788300
C 1.496600 0.381100 -8.044100
C -3.648300 -4.491200 -6.663800
C -4.422300 -5.628500 -6.711100
H -3.519900 -6.746200 -9.784000
H -2.159400 -4.708900 -9.695700
H -4.170400 -1.893400 -7.445500
H -4.614200 0.429100 -7.444600
H -3.306500 4.233800 -9.105800
H -5.147800 5.854500 -9.132200
H -7.120300 3.688200 -6.032600
H -5.258600 2.080200 -5.973800
H -1.463600 3.262100 -7.785500
H 0.459400 3.623600 -7.932500
H 4.287800 3.966200 -9.870500
H 5.490400 6.102400 -9.766700
H 3.118300 7.284400 -6.421500
H 1.907700 5.143900 -6.522500
H 4.418600 2.127000 -8.297900
H 4.858600 -0.204300 -8.243700
H 5.565900 -1.874900 -6.599700
H 7.366100 -3.556900 -6.706800
H 5.206200 -5.670000 -9.719800
H 3.411500 -3.997000 -9.618300
H 1.686600 -3.019100 -8.011000
H -0.243600 -3.375900 -8.083600
H -3.673300 -3.862900 -5.788000
H -5.051700 -5.903700 -5.881400
C -4.137700 -7.768000 6.454300
C -3.148200 -8.698800 6.124300
C -2.377600 -8.515800 4.993000
C -2.565700 -7.397300 4.182000
C -1.982300 -7.321800 2.835500
C -2.864600 -7.096200 1.804700
C -2.446800 -7.171300 0.469300
C -3.400200 -7.098000 -0.555900
C -3.033600 -7.267700 -1.871000
C -4.101100 -7.343800 -2.873800
C -4.061800 -8.278000 -3.910100
C -5.136500 -8.432900 -4.761600
C -6.293200 -7.677200 -4.568400
C -6.337100 -6.729800 -3.543200
C -5.241600 -6.549300 -2.729800
C -1.675800 -7.444700 -2.180800
C -0.696700 -7.483100 -1.202300
C 0.713900 -7.677900 -1.519000
C 1.185400 -7.697900 -2.822100
C 2.527700 -7.967000 -3.114400
C 3.072200 -8.016400 -4.482200
C 3.796900 -9.143800 -4.865400
C 4.496300 -9.160100 -6.053100
C 4.489300 -8.033600 -6.870900
C 3.707200 -6.934000 -6.538500
C 3.001400 -6.929900 -5.348000
C 3.413000 -8.182400 -2.086600
C 2.999700 -8.074700 -0.750400
C 3.949100 -8.161600 0.277800
C 3.578700 -7.990400 1.591500
C 4.617100 -8.004600 2.624700
C 5.842200 -7.385400 2.362200
C 6.865500 -7.421700 3.280300
C 6.673000 -8.053300 4.512600
C 5.442400 -8.650500 4.794400
C 4.432300 -8.635400 3.855300
C 2.224100 -7.793400 1.899400
C 1.250100 -7.735600 0.918800
C -0.159700 -7.542400 1.236900
C -0.632600 -7.552700 2.539900
C -1.079400 -7.387200 0.164100
C 1.634700 -7.834400 -0.447300
C -3.485500 -6.421400 4.577400
C -4.278100 -6.610200 5.685600
H -3.048200 -9.605000 6.702600
H -1.665900 -9.274700 4.706200
H -3.910000 -6.930100 2.006100
H -4.437400 -6.987100 -0.283800
H -3.199200 -8.914400 -4.029400
H -5.118600 -9.176500 -5.541800
H -7.213400 -6.111300 -3.434200
H -5.267100 -5.780800 -1.974800
H -1.412700 -7.556200 -3.219000
H 0.520900 -7.529300 -3.652800
H 3.813500 -10.014000 -4.227000
H 5.036900 -10.040400 -6.360600
H 3.701500 -6.075700 -7.190600
H 2.424900 -6.061900 -5.070500
H 4.450700 -8.396000 -2.292400
H 4.975500 -8.368900 0.018100
H 5.983400 -6.858200 1.432800
H 7.795500 -6.915700 3.077800
H 5.312600 -9.163000 5.733900
H 3.502400 -9.138700 4.067900
H 1.966700 -7.651800 2.935400
H 0.034600 -7.732700 3.366000
H -3.587800 -5.520400 3.994200
H -5.006300 -5.872000 5.980000
Zn 7.519100 7.539200 7.393800
C 12.203800 6.115600 7.355200
C 11.121000 5.251500 7.322300
C 9.832300 5.781900 7.374500
H 11.270000 4.185100 7.262100
N 9.606500 7.103300 7.444400
C 8.669600 4.925000 7.390300
C 10.646100 7.922100 7.489500
C 11.961400 7.478400 7.448100
H 10.431200 8.976500 7.569300
H 12.772200 8.187500 7.488800
H 13.214100 5.739100 7.316300
N 7.483400 5.402200 7.474300
H 8.855500 3.853500 7.370600
C 6.704600 7.984000 12.212800
C 5.708600 8.070300 11.250500
C 6.057100 7.923400 9.910200
H 4.684000 8.254100 11.532900
N 7.322900 7.694400 9.521100
C 5.076700 8.025700 8.844000
C 8.267000 7.610400 10.443000
C 8.008000 7.748900 11.801800
H 9.270400 7.425500 10.091300
H 8.811200 7.673700 12.516600
H 6.470300 8.096800 13.259800
N 5.468300 7.985700 7.630900
H 4.033100 8.165500 9.117800
C 8.832500 12.082900 6.232900
C 8.745400 11.046200 5.316300
C 8.314800 9.794400 5.753300
H 9.004000 11.203900 4.281300
N 7.984800 9.565100 7.035500
C 8.163900 8.682100 4.840200
C 8.065200 10.559300 7.905200
C 8.481900 11.836600 7.552700
H 7.788600 10.332300 8.923400
H 8.532600 12.615600 8.295900
H 9.164000 13.062800 5.926800
N 7.662000 7.572900 5.236200
H 8.451100 8.851700 3.805300
Zn 7.452300 -7.567200 7.493800
C 6.735700 -12.117900 9.179100
C 5.763500 -11.129300 9.186900
C 6.062900 -9.887200 8.630500
H 4.791700 -11.316000 9.615700
N 7.262600 -9.615500 8.091200
C 5.085900 -8.820100 8.586100
C 8.181400 -10.567300 8.077000
C 7.967000 -11.833400 8.607300
H 9.131800 -10.317600 7.631200
H 8.749400 -12.574200 8.576300
H 6.539000 -13.088400 9.607000
N 5.344200 -7.738500 7.955300
H 4.128500 -8.996900 9.070500
C 7.406600 -5.611700 11.956800
C 7.307000 -4.881700 10.783100
C 7.383300 -5.552300 9.563000
H 7.173500 -3.812000 10.810400
N 7.543000 -6.882800 9.491800
C 7.317200 -4.839500 8.307800
C 7.656200 -7.572800 10.616400
C 7.593000 -6.984100 11.872100
H 7.806900 -8.636800 10.516800
H 7.689400 -7.590200 12.758200
H 7.348500 -5.125400 12.918000
N 7.399300 -5.439000 7.177800
H 7.229500 -3.756800 8.372000
C 12.243500 -8.177900 6.806700
C 11.283200 -8.329800 5.818200
C 9.948500 -8.077600 6.133500
H 11.560400 -8.642600 4.823900
N 9.566000 -7.687900 7.361300
C 8.895900 -8.207900 5.150000
C 10.488200 -7.539000 8.297600
C 11.838900 -7.772200 8.070200
H 10.143300 -7.221100 9.269400
H 12.553800 -7.638100 8.865600
H 13.284400 -8.369800 6.597700
N 7.668800 -8.047000 5.483800
H 9.190900 -8.449000 4.131300
Zn -7.161800 -7.845600 7.343000
C -11.926600 -7.301000 8.133500
C -10.999500 -6.274600 8.244200
C -9.664500 -6.542600 7.949400
H -11.303900 -5.288300 8.557100
N -9.252000 -7.760200 7.558000
C -8.638800 -5.520700 8.033600
C -10.140500 -8.733800 7.447800
C -11.490400 -8.553000 7.725000
H -9.765500 -9.692900 7.124400
H -12.180900 -9.374000 7.621100
H -12.967600 -7.127800 8.357900
N -7.409700 -5.827900 7.866900
H -8.957300 -4.503100 8.249800
C -6.155600 -9.302800 11.923500
C -5.202700 -9.151800 10.928300
C -5.606900 -8.706700 9.670400
H -4.164900 -9.372300 11.121800
N -6.890100 -8.423000 9.391200
C -4.658300 -8.498800 8.599400
C -7.793000 -8.565200 10.347800
C -7.476900 -9.000000 11.628700
H -8.813800 -8.328400 10.091000
H -8.250100 -9.101700 12.372700
H -5.877300 -9.647300 12.907200
N -5.036000 -7.964200 7.499100
H -3.623000 -8.770800 8.788300
C -6.428700 -12.286000 5.472100
C -6.513400 -11.131100 4.710100
C -6.819300 -9.927200 5.342500
H -6.348500 -11.160800 3.644900
N -7.020900 -9.849800 6.668000
C -6.981300 -8.700200 4.593800
C -6.958600 -10.959600 7.387200
C -6.666500 -12.200500 6.836100
H -7.152200 -10.862400 8.444500
H -6.629700 -13.075200 7.465100
H -6.191900 -13.234300 5.015600
N -7.268700 -7.600500 5.182100
H -6.903500 -8.772100 3.511100
Zn -7.167900 7.940500 7.744400
C -5.680700 12.437700 8.978800
C -4.857900 11.321800 8.974400
C -5.385900 10.097400 8.567700
H -3.826500 11.397500 9.280400
N -6.665700 9.965700 8.180500
C -4.573500 8.901300 8.512200
C -7.443200 11.036100 8.180000
C -6.998300 12.293300 8.569600
H -8.464200 10.892800 7.861400
H -7.671600 13.134900 8.555200
H -5.304800 13.398900 9.292700
N -5.053100 7.815900 8.032000
H -3.542200 8.982900 8.846900
C -7.484100 6.437200 12.380400
C -7.547400 5.594200 11.282100
C -7.479500 6.145400 10.003200
H -7.651100 4.528700 11.412500
N -7.346500 7.465600 9.802600
C -7.572500 5.314200 8.823900
C -7.299200 8.266800 10.855800
C -7.363900 7.802100 12.162800
H -7.211100 9.323700 10.656600
H -7.322100 8.496600 12.986100
H -7.533300 6.043400 13.383500
N -7.548400 5.810100 7.643900
H -7.699700 4.246600 8.992400
C -11.810300 9.062400 6.758300
C -10.807100 8.979900 5.804300
C -9.521900 8.625500 6.210600
H -11.014600 9.191000 4.767100
N -9.227500 8.359000 7.494100
C -8.425300 8.513200 5.271200
C -10.189300 8.435200 8.398700
C -11.496800 8.781700 8.080300
H -9.913000 8.211200 9.417500
H -12.248000 8.830000 8.851800
H -12.815500 9.336800 6.479000
N -7.237100 8.282100 5.686900
H -8.651100 8.643800 4.215000
Zn 7.369800 8.036000 -7.808300
C 8.396800 6.821000 -12.377300
C 8.401600 5.926200 -11.317000
C 8.036100 6.382100 -10.051700
H 8.686600 4.896900 -11.466600
N 7.678300 7.659100 -9.833200
C 7.998800 5.499700 -8.902700
C 7.670100 8.508000 -10.847900
C 8.020600 8.135300 -12.140100
H 7.369900 9.520500 -10.625300
H 7.997300 8.858700 -12.938700
H 8.676900 6.500600 -13.368500
N 7.749600 5.949800 -7.730600
H 8.196000 4.444800 -9.082400
C 12.013800 9.282200 -6.802800
C 10.979000 9.292200 -5.881000
C 9.706600 8.896100 -6.291800
H 11.151900 9.601300 -4.862300
N 9.450600 8.503600 -7.550300
C 8.593200 8.867800 -5.372100
C 10.445000 8.493300 -8.423000
C 11.741700 8.872600 -8.099900
H 10.208200 8.175500 -9.426400
H 12.515800 8.849900 -8.849600
H 13.009200 9.586300 -6.519200
N 7.456700 8.401300 -5.735900
H 8.776400 9.218800 -4.359600
C 5.808700 12.659900 -7.593100
C 4.970800 11.556500 -7.549200
C 5.518800 10.287600 -7.725900
H 3.911700 11.675400 -7.384800
N 6.834400 10.099900 -7.922200
C 4.693400 9.099500 -7.761600
C 7.625900 11.158700 -7.982400
C 7.161300 12.458400 -7.825800
H 8.672600 10.970100 -8.167500
H 7.846900 13.288000 -7.886600
H 5.418400 13.656600 -7.458300
N 5.223800 7.952500 -7.957400
H 3.617400 9.235300 -7.679300
Zn 7.438600 -7.739100 -7.960500
C 7.815500 -12.300200 -6.293600
C 7.702200 -11.185800 -5.475600
C 7.621200 -9.925100 -6.063600
H 7.679100 -11.290800 -4.402600
N 7.647800 -9.758200 -7.396100
C 7.532600 -8.716600 -5.267700
C 7.756400 -10.825100 -8.172500
C 7.843300 -12.116800 -7.668600
H 7.775300 -10.646700 -9.237100
H 7.930900 -12.954900 -8.340700
H 7.880700 -13.290800 -5.871400
N 7.579700 -7.567800 -5.823400
H 7.482800 -8.831600 -4.187000
C 12.092400 -6.604400 -8.797100
C 11.056500 -5.682500 -8.774400
C 9.765100 -6.128700 -8.498800
H 11.244000 -4.638600 -8.970500
N 9.495000 -7.421300 -8.252600
C 8.639200 -5.218800 -8.458600
C 10.488400 -8.295700 -8.269400
C 11.803800 -7.936000 -8.536200
H 10.231400 -9.323300 -8.063000
H 12.580200 -8.683800 -8.539000
H 13.102900 -6.292900 -9.010400
N 7.444400 -5.652200 -8.311700
H 8.853500 -4.158500 -8.576500
C 6.179100 -8.503400 -12.650000
C 5.268500 -8.426700 -11.605200
C 5.746900 -8.232200 -10.312700
H 4.209800 -8.518900 -11.790000
N 7.056600 -8.109900 -10.043100
C 4.854900 -8.175700 -9.166600
C 7.919500 -8.187800 -11.042300
C 7.530100 -8.385700 -12.362500
H 8.964600 -8.094300 -10.789200
H 8.271900 -8.445100 -13.142300
H 5.844000 -8.654600 -13.664100
N 5.333100 -8.027300 -7.998100
H 3.787900 -8.292700 -9.346900
Zn -7.364000 -7.533400 -7.497800
C -7.711300 -6.063300 -12.135000
C -7.651100 -5.204000 -11.049100
C -7.597700 -5.742900 -9.764400
H -7.650800 -4.135300 -11.193500
N -7.590100 -7.067400 -9.547500
C -7.579300 -4.894300 -8.594100
C -7.661400 -7.882900 -10.588200
C -7.724100 -7.430400 -11.899500
H -7.674600 -8.940700 -10.374700
H -7.782900 -8.135700 -12.712600
H -7.753700 -5.679700 -13.142400
N -7.581400 -5.379800 -7.409400
H -7.606700 -3.820900 -8.771700
C -12.022700 -8.358700 -6.310800
C -10.982600 -8.301000 -5.394900
C -9.696200 -8.031200 -5.857400
H -11.163500 -8.468000 -4.344800
N -9.434800 -7.819800 -7.158300
C -8.558400 -7.959000 -4.963400
C -10.431500 -7.870200 -8.026100
C -11.743000 -8.136600 -7.651200
H -10.180900 -7.692700 -9.060700
H -12.523300 -8.168400 -8.394100
H -13.030200 -8.569900 -5.988100
N -7.376700 -7.829200 -5.435600
H -8.748300 -8.034000 -3.894800
C -6.210700 -12.125500 -8.734500
C -5.322100 -11.062500 -8.784900
C -5.753900 -9.803700 -8.370100
H -4.313000 -11.204900 -9.137900
N -7.003200 -9.588900 -7.925100
C -4.865800 -8.661400 -8.363900
C -7.844000 -10.609300 -7.873400
C -7.495900 -11.895800 -8.265600
H -8.837700 -10.399700 -7.508700
H -8.217200 -12.694600 -8.207600
H -5.909300 -13.111600 -9.051600
N -5.250200 -7.546700 -7.866400
H -3.859900 -8.809800 -8.748900
Zn -7.300900 7.921800 -7.500500
C -6.324500 8.562300 -12.265000
C -5.357100 8.565900 -11.270700
C -5.751300 8.356700 -9.951200
H -4.319400 8.733400 -11.512300
N -7.035000 8.146900 -9.612700
C -4.801000 8.363000 -8.855200
C -7.951300 8.138900 -10.565900
C -7.646100 8.342500 -11.906600
H -8.970000 7.964500 -10.255500
H -8.428100 8.328700 -12.648200
H -6.054900 8.725500 -13.296800
N -5.226000 8.264900 -7.654900
H -3.746000 8.478000 -9.093900
C -8.577500 12.462400 -6.286600
C -8.597400 11.394300 -5.402800
C -8.156400 10.147300 -5.842700
H -8.946500 11.524300 -4.390700
N -7.716000 9.951200 -7.096800
C -8.110000 9.003900 -4.956700
C -7.692100 10.975900 -7.933900
C -8.110600 12.251200 -7.576000
H -7.326800 10.776800 -8.929700
H -8.074000 13.055700 -8.292400
H -8.915200 13.439200 -5.977600
N -7.597600 7.896600 -5.343800
H -8.480200 9.149700 -3.944700
C -12.015200 6.618700 -7.665600
C -10.956700 5.727100 -7.595000
C -9.654100 6.224800 -7.599300
H -11.135100 4.664800 -7.542700
N -9.393300 7.540300 -7.657500
C -8.511300 5.341400 -7.575700
C -10.409000 8.385500 -7.740600
C -11.735700 7.975200 -7.747700
H -10.163400 9.433900 -7.811700
H -12.526500 8.704200 -7.818600
H -13.035500 6.268200 -7.664200
N -7.313900 5.794300 -7.622900
H -8.719900 4.273900 -7.560500
&END COORD

! Atom Basis Set
! --------------
&KIND C
  BASIS_SET DZVP-MOLOPT-GTH
  POTENTIAL GTH-PBE-q4
&END KIND
&KIND H
  BASIS_SET DZVP-MOLOPT-GTH
  POTENTIAL GTH-PBE-q1
&END KIND
&KIND N
  BASIS_SET DZVP-MOLOPT-GTH
  POTENTIAL GTH-PBE-q5
&END KIND
&KIND O
  BASIS_SET DZVP-MOLOPT-GTH
  POTENTIAL GTH-PBE-q6
&END KIND
&KIND Zn
  BASIS_SET  DZVP-MOLOPT-SR-GTH
  POTENTIAL  GTH-PBE-q12
&END KIND
&END SUBSYS
&END FORCE_EVAL

! Geometry Optimization
! ---------------------
&MOTION
  &GEO_OPT
    OPTIMIZER BFGS
    MAX_ITER 2000
    MAX_DR  [bohr] 0.003
    &BFGS
    &END
  &END GEO_OPT
&END MOTION

