&GLOBAL
  PROJECT_NAME C_cl1_quad2_12_d31_optc_opt
  RUN_TYPE GEO_OPT
  EXTENDED_FFT_LENGTHS
&END GLOBAL

! Force Evaluation
! ----------------
&FORCE_EVAL
  METHOD QS
  &DFT
    BASIS_SET_FILE_NAME BASIS_MOLOPT
    POTENTIAL_FILE_NAME GTH_POTENTIALS
    CHARGE 16
    &QS
      EPS_DEFAULT 1.0E-10
    &END QS
    &MGRID
      NGRIDS 5
     CUTOFF 700
     REL_CUTOFF 60
    &END MGRID
    &SCF
      SCF_GUESS ATOMIC
      EPS_SCF 5.0E-7
      MAX_SCF 300
      &OT
        PRECONDITIONER FULL_SINGLE_INVERSE
        MINIMIZER DIIS
      &END OT
      &OUTER_SCF ! Repeat the inner SCF cycle 10 times
        MAX_SCF 10
        EPS_SCF 5.0E-7 ! Must match the above
      &END
      &PRINT
        &RESTART ON
        FILENAME C_cl1_quad2_12_d31_optc_opt.res
      &END
      &END
    &END SCF

    ! Exchange-Correlation
    ! -------------------
    &XC
      &VDW_POTENTIAL
        POTENTIAL_TYPE PAIR_POTENTIAL
        &PAIR_POTENTIAL
          TYPE DFTD3
          CALCULATE_C9_TERM .TRUE.
          PARAMETER_FILE_NAME dftd3.dat
          REFERENCE_FUNCTIONAL PBE
          R_CUTOFF 10.
          EPS_CN 0.01
        &END PAIR_POTENTIAL
      &END VDW_POTENTIAL
      &XC_FUNCTIONAL PBE
      &END XC_FUNCTIONAL
    &END XC
  &END DFT
  &PRINT
    &FORCES ON
    &END FORCES
  &END PRINT

&SUBSYS
! Cell
! ----
&CELL
  ABC 56.45 56.45 56.45
  ALPHA_BETA_GAMMA 90.0 90.0 90.0
  PERIODIC NONE
&END CELL

! Coordinates
! -----------
&COORD
C -4.166300 6.476800 7.788100
C -3.295000 6.037200 8.789500
C -2.739900 4.775700 8.716400
C -3.037500 3.927300 7.649600
C -2.507100 2.555900 7.604600
C -3.360400 1.492200 7.436400
C -2.872600 0.172600 7.450500
C -3.767100 -0.903100 7.348200
C -3.321700 -2.207000 7.369500
C -4.337300 -3.269200 7.310400
C -4.268200 -4.419500 8.098100
C -5.325200 -5.309000 8.154500
C -6.499600 -5.044200 7.450300
C -6.554300 -3.929000 6.610900
C -5.476900 -3.076900 6.522000
C -1.944600 -2.451700 7.508200
C -1.020100 -1.424500 7.619000
C 0.413600 -1.667500 7.790600
C 0.947400 -2.941500 7.958000
C 2.321400 -3.140500 8.129400
C 3.072600 -4.391900 8.373000
C 3.739500 -4.496000 9.599500
C 4.885300 -5.247100 9.717100
C 5.395700 -5.919100 8.595100
C 4.567600 -6.049900 7.474600
C 3.428200 -5.275200 7.354900
C 3.174700 -2.060900 8.074500
C 2.686800 -0.762100 7.895300
C 3.588400 0.312700 7.851800
C 3.132400 1.605400 7.749500
C 4.112500 2.696900 7.777200
C 5.313900 2.574100 7.074500
C 6.309900 3.515700 7.204100
C 6.120500 4.627600 8.030700
C 4.903100 4.781900 8.694600
C 3.915800 3.825600 8.572200
C 1.749300 1.832200 7.690500
C 0.830600 0.797800 7.718700
C -0.604300 1.037600 7.675000
C -1.133200 2.314500 7.731300
C -1.480400 -0.076700 7.577100
C 1.289400 -0.545500 7.795600
C -3.887000 4.382100 6.640700
C -4.452400 5.637000 6.709800
H -3.106500 6.659800 9.651100
H -2.097400 4.430000 9.511900
H -4.422000 1.655300 7.337300
H -4.822400 -0.686900 7.297000
H -3.399500 -4.600800 8.711500
H -5.280800 -6.171600 8.799900
H -7.434400 -3.769400 6.008500
H -5.520800 -2.243500 5.839800
H -1.618500 -3.478500 7.512700
H 0.306200 -3.806800 7.991700
H 3.393100 -3.919100 10.443600
H 5.402000 -5.292200 10.663600
H 4.876300 -6.689200 6.663200
H 2.863400 -5.291800 6.436300
H 4.239100 -2.205800 8.179400
H 4.642400 0.104500 7.948800
H 5.461400 1.729200 6.421200
H 7.226000 3.422800 6.642600
H 4.772300 5.615300 9.364400
H 3.003000 3.930700 9.137700
H 1.418600 2.852600 7.598200
H -0.492200 3.170500 7.855600
H -4.098800 3.745600 5.797000
H -5.094200 5.997600 5.922800
C 8.025200 4.572000 -6.510100
C 9.152700 3.868700 -6.077500
C 9.173700 3.305600 -4.815700
C 8.073400 3.422100 -3.969500
C 8.087600 2.874800 -2.596900
C 8.120300 3.722600 -1.518000
C 8.092600 3.212500 -0.206600
C 8.137700 4.089800 0.890500
C 8.011400 3.615800 2.174700
C 7.983800 4.598900 3.275300
C 9.075100 5.446500 3.471500
C 9.027700 6.456800 4.409000
C 7.870800 6.650600 5.171200
C 6.795000 5.774500 5.012300
C 6.853200 4.762500 4.074400
C 7.895100 2.235700 2.393200
C 7.933400 1.326000 1.349000
C 7.882000 -0.117000 1.569800
C 8.010200 -0.689100 2.831700
C 7.885400 -2.068600 3.020700
C 8.114000 -2.883700 4.236500
C 9.410100 -3.320100 4.521500
C 9.615900 -4.510800 5.185900
C 8.520300 -5.278500 5.606300
C 7.249200 -4.698400 5.565200
C 7.045900 -3.529200 4.861100
C 7.602400 -2.876500 1.942300
C 7.569500 -2.355700 0.643300
C 7.453700 -3.231800 -0.444800
C 7.541100 -2.766200 -1.736700
C 7.574100 -3.764400 -2.812100
C 6.799800 -4.923600 -2.696700
C 6.996400 -5.992500 -3.540400
C 7.937300 -5.904600 -4.569200
C 8.627000 -4.707900 -4.770400
C 8.461000 -3.659700 -3.885300
C 7.696000 -1.387100 -1.948000
C 7.778900 -0.484200 -0.900800
C 7.940700 0.948300 -1.116700
C 8.012400 1.493500 -2.386500
C 7.992500 1.812200 0.011800
C 7.731800 -0.963400 0.437400
C 6.941300 4.099700 -4.417800
C 6.918400 4.681100 -5.667900
H 10.029400 3.816400 -6.705900
H 10.059400 2.790000 -4.476300
H 8.179700 4.790600 -1.662100
H 8.237900 5.149700 0.711000
H 9.970500 5.308900 2.883900
H 9.895800 7.077300 4.574900
H 5.900900 5.937400 5.592300
H 6.004100 4.112600 3.935100
H 7.795200 1.896300 3.410800
H 8.226200 -0.075500 3.690900
H 10.257800 -2.771900 4.138800
H 10.622000 -4.864400 5.354100
H 6.413300 -5.222300 5.996500
H 6.044100 -3.152800 4.727700
H 7.482200 -3.940000 2.079200
H 7.373900 -4.287600 -0.241700
H 6.047800 -4.988800 -1.927500
H 6.405700 -6.888900 -3.441400
H 9.342300 -4.642500 -5.575200
H 9.061300 -2.771200 -4.003200
H 7.744000 -1.044100 -2.967400
H 7.984200 0.866300 -3.261400
H 6.078500 4.175200 -3.775800
H 6.042300 5.200100 -6.018900
C -5.181500 8.772800 -5.956100
C -4.332800 7.708900 -6.277800
C -3.256100 7.387900 -5.464400
C -2.995100 8.120100 -4.309600
C -2.201900 7.693600 -3.130200
C -3.014900 7.379700 -2.062800
C -2.495400 7.260800 -0.768700
C -3.387000 7.174000 0.312500
C -2.931100 7.272500 1.606800
C -3.903100 7.435800 2.693000
C -3.645300 8.304000 3.756900
C -4.617100 8.588700 4.693000
C -5.892900 8.039900 4.563900
C -6.154200 7.149700 3.519200
C -5.161600 6.833400 2.618500
C -1.546000 7.351300 1.824200
C -0.632200 7.399600 0.787200
C 0.798100 7.534400 1.025900
C 1.329800 7.551700 2.303300
C 2.700900 7.722000 2.543500
C 3.231600 7.796000 3.910600
C 4.244100 8.713700 4.201900
C 4.806000 8.773500 5.457200
C 4.345600 7.929800 6.468200
C 3.305100 7.038200 6.201400
C 2.767300 6.966000 4.931300
C 3.550900 7.835700 1.468400
C 3.056400 7.795600 0.153700
C 3.951300 7.882900 -0.921700
C 3.505600 7.836100 -2.223400
C 4.521400 7.874600 -3.285200
C 5.717500 7.178100 -3.087200
C 6.736300 7.230900 -4.009800
C 6.569300 7.940800 -5.201200
C 5.384200 8.646300 -5.406400
C 4.380500 8.621300 -4.454400
C 2.124000 7.745100 -2.467800
C 1.196800 7.668800 -1.439400
C -0.245900 7.582200 -1.678800
C -0.815700 7.755200 -2.937900
C -1.099800 7.392700 -0.556200
C 1.664500 7.663000 -0.092900
C -3.770600 9.258900 -4.062600
C -4.844000 9.576800 -4.855300
H -4.542700 7.122800 -7.159500
H -2.653500 6.525300 -5.699000
H -4.082800 7.312200 -2.201600
H -4.442000 7.136300 0.094400
H -2.690100 8.798900 3.830100
H -4.426000 9.291900 5.486700
H -7.124800 6.685300 3.453800
H -5.362500 6.115900 1.840200
H -1.208800 7.385600 2.845500
H 0.687100 7.465200 3.162300
H 4.582300 9.399000 3.440700
H 5.568600 9.500300 5.683300
H 2.974000 6.367100 6.978500
H 1.998100 6.240000 4.721700
H 4.615200 7.934100 1.616700
H 5.000000 8.013300 -0.705000
H 5.841600 6.576900 -2.201100
H 7.649600 6.680300 -3.849900
H 5.281300 9.257000 -6.289300
H 3.490100 9.211500 -4.610500
H 1.798700 7.712400 -3.494300
H -0.198500 8.002300 -3.786100
H -3.564900 9.859500 -3.189600
H -5.487500 10.387100 -4.551300
C -7.967100 6.111900 -4.747900
C -8.743300 5.952400 -3.589500
C -8.283300 5.173200 -2.550800
C -7.060100 4.502400 -2.659000
C -6.865700 3.240400 -1.930300
C -6.583200 2.163800 -2.747500
C -6.792700 0.852800 -2.299200
C -6.805900 -0.205500 -3.228000
C -7.277400 -1.439200 -2.855900
C -7.569400 -2.450000 -3.894100
C -6.572900 -3.199100 -4.511900
C -6.891800 -4.086400 -5.521600
C -8.207600 -4.176100 -5.975000
C -9.213900 -3.438800 -5.350000
C -8.895000 -2.607000 -4.297000
C -7.585000 -1.684800 -1.513500
C -7.460000 -0.702800 -0.546600
C -7.707100 -0.975000 0.859800
C -7.822200 -2.266500 1.338900
C -8.089800 -2.537200 2.688000
C -8.168000 -3.918700 3.180600
C -9.146100 -4.283500 4.107800
C -9.133300 -5.532700 4.691100
C -8.145600 -6.457500 4.349000
C -7.224400 -6.134200 3.351400
C -7.230500 -4.874300 2.787400
C -8.226300 -1.484700 3.563500
C -8.035800 -0.159700 3.131600
C -8.054100 0.890100 4.062900
C -7.806300 2.185400 3.669100
C -7.753100 3.228800 4.703100
C -7.074100 2.961400 5.894000
C -7.011600 3.893600 6.904700
C -7.616000 5.143600 6.743000
C -8.312700 5.411600 5.564800
C -8.380400 4.465100 4.560500
C -7.571400 2.461400 2.311900
C -7.554400 1.462600 1.352300
C -7.267100 1.730200 -0.057700
C -7.187300 3.011800 -0.582400
C -7.147300 0.622500 -0.944900
C -7.771200 0.116900 1.764400
C -6.197200 4.875100 -3.697600
C -6.632700 5.691800 -4.719100
H -9.717100 6.414100 -3.525600
H -8.922200 4.997600 -1.699100
H -6.336900 2.322000 -3.785000
H -6.542800 -0.009600 -4.255100
H -5.547300 -3.089500 -4.198300
H -6.130100 -4.673800 -6.007300
H -10.238500 -3.550900 -5.671300
H -9.674800 -2.048300 -3.802200
H -7.952400 -2.663600 -1.255100
H -7.722500 -3.105400 0.671700
H -9.924800 -3.583800 4.370800
H -9.904800 -5.817200 5.386900
H -6.469800 -6.853800 3.077400
H -6.476900 -4.612100 2.062400
H -8.427500 -1.660700 4.609100
H -8.273500 0.665100 5.095300
H -6.575000 2.013300 6.013000
H -6.451900 3.688700 7.803900
H -8.843500 6.345100 5.471000
H -8.953200 4.673900 3.669900
H -7.361800 3.482500 2.041000
H -7.390800 3.868300 0.038900
H -5.199000 4.468200 -3.730400
H -5.998200 5.912600 -5.562500
C 6.445900 -4.456100 -8.039800
C 5.734100 -4.340700 -9.231200
C 4.470700 -3.777400 -9.222900
C 3.939500 -3.250800 -8.048900
C 2.579000 -2.681400 -8.015700
C 1.488000 -3.465100 -8.298700
C 0.185200 -2.952800 -8.146400
C -0.921900 -3.807400 -8.260500
C -2.199000 -3.351600 -8.015100
C -3.301000 -4.322700 -8.011300
C -4.562300 -4.044600 -8.539900
C -5.561100 -4.999100 -8.530000
C -5.312900 -6.271700 -8.013000
C -4.050600 -6.560500 -7.487500
C -3.074200 -5.591300 -7.469100
C -2.397100 -1.985000 -7.754700
C -1.341100 -1.092400 -7.688600
C -1.537100 0.338300 -7.462400
C -2.777900 0.952900 -7.592200
C -2.929000 2.335900 -7.421200
C -4.081300 3.165100 -7.833800
C -3.740800 4.145600 -8.773200
C -4.621900 5.139300 -9.115900
C -5.887100 5.196300 -8.516400
C -6.257000 4.192000 -7.622200
C -5.364700 3.180200 -7.297500
C -1.845200 3.082100 -7.012300
C -0.565100 2.520600 -6.948900
C 0.540200 3.374500 -6.824100
C 1.817500 2.908300 -7.041500
C 2.885100 3.898200 -7.217000
C 2.816400 5.126900 -6.552600
C 3.625300 6.176800 -6.921200
C 4.590800 6.001100 -7.915600
C 4.750400 4.745100 -8.501200
C 3.888600 3.718400 -8.172600
C 2.000700 1.531900 -7.253700
C 0.939300 0.645700 -7.315800
C 1.131300 -0.769800 -7.598400
C 2.388400 -1.344500 -7.645200
C -0.011100 -1.585800 -7.816500
C -0.389500 1.140900 -7.216300
C 4.692400 -3.307000 -6.876400
C 5.917900 -3.940500 -6.858300
H 6.154000 -4.733500 -10.145400
H 3.902300 -3.729800 -10.139500
H 1.612400 -4.497900 -8.587900
H -0.750600 -4.836200 -8.537500
H -4.757700 -3.083000 -8.987700
H -6.524500 -4.787700 -8.964800
H -3.870100 -7.528500 -7.047700
H -2.120400 -5.812500 -7.018800
H -3.403900 -1.648600 -7.569800
H -3.637000 0.382500 -7.905500
H -2.760200 4.133600 -9.223100
H -4.310500 5.925400 -9.787500
H -7.248200 4.207200 -7.197700
H -5.661300 2.418200 -6.595300
H -1.954700 4.141000 -6.839800
H 0.350300 4.425800 -6.683700
H 2.112100 5.264600 -5.748800
H 3.553300 7.128700 -6.420900
H 5.499000 4.613500 -9.265800
H 3.968200 2.782400 -8.702100
H 3.007900 1.178700 -7.393300
H 3.268400 -0.767900 -7.414700
H 4.292800 -2.887300 -5.967200
H 6.488000 -4.024900 -5.948900
C 5.623700 -9.085400 5.309000
C 4.980700 -10.238600 4.831300
C 4.165000 -10.159700 3.727800
C 3.970000 -8.944300 3.060800
C 2.725400 -8.780100 2.286700
C 1.599300 -9.014100 3.044800
C 0.321800 -8.753600 2.535800
C -0.793800 -8.873400 3.378700
C -2.042900 -8.507100 2.938600
C -3.139400 -8.535000 3.917700
C -3.922200 -7.408700 4.170200
C -4.826100 -7.402200 5.214100
C -4.954400 -8.524600 6.033300
C -4.218400 -9.678000 5.746600
C -3.326100 -9.678200 4.697600
C -2.205000 -8.097600 1.608200
C -1.144800 -8.066400 0.716800
C -1.326500 -7.780700 -0.700200
C -2.583500 -7.632800 -1.260900
C -2.768100 -7.466400 -2.640500
C -4.117400 -7.392300 -3.220800
C -4.445600 -8.218200 -4.296600
C -5.686600 -8.143200 -4.891300
C -6.637000 -7.235700 -4.421400
C -6.321000 -6.420500 -3.329900
C -5.075900 -6.500900 -2.740500
C -1.667000 -7.404700 -3.459900
C -0.369700 -7.504100 -2.927200
C 0.739700 -7.414500 -3.780800
C 2.021900 -7.548600 -3.296600
C 3.123400 -7.477100 -4.267800
C 3.044500 -6.555500 -5.316100
C 3.956100 -6.571700 -6.347100
C 5.016100 -7.479600 -6.332100
C 5.142700 -8.360500 -5.258500
C 4.198500 -8.365800 -4.247900
C 2.209400 -7.797700 -1.927200
C 1.146900 -7.884400 -1.041200
C 1.329800 -8.197400 0.376300
C 2.581700 -8.365000 0.956500
C 0.168400 -8.341600 1.187600
C -0.178800 -7.719700 -1.536600
C 4.803000 -7.873900 3.387800
C 5.631600 -7.949500 4.491700
H 5.110100 -11.186400 5.331000
H 3.627300 -11.037300 3.401700
H 1.691700 -9.343500 4.068500
H -0.644200 -9.201100 4.396000
H -3.784100 -6.520800 3.573800
H -5.393400 -6.516600 5.454500
H -4.371700 -10.574300 6.328900
H -2.762000 -10.572300 4.479700
H -3.199200 -7.835900 1.288600
H -3.467600 -7.699700 -0.650200
H -3.725900 -8.940800 -4.650300
H -5.954500 -8.816500 -5.689400
H -7.035500 -5.689000 -2.988100
H -4.828400 -5.848800 -1.918100
H -1.785200 -7.266500 -4.523100
H 0.565800 -7.278900 -4.836500
H 2.252800 -5.824000 -5.324100
H 3.880500 -5.864600 -7.156900
H 5.938000 -9.089100 -5.264700
H 4.275100 -9.100300 -3.460700
H 3.220600 -7.918100 -1.576300
H 3.479900 -8.206400 0.383500
H 4.739300 -6.955200 2.826700
H 6.234700 -7.103600 4.781200
Zn 7.035200 7.700900 8.089300
C 11.706600 6.611400 9.059700
C 10.722700 5.675900 8.782600
C 9.412000 6.111800 8.591600
H 10.963200 4.626600 8.719000
N 9.074300 7.409300 8.659100
C 8.335000 5.178200 8.355900
C 10.016200 8.295100 8.942300
C 11.344600 7.947700 9.149500
H 9.706400 9.326200 9.016700
H 12.073100 8.708600 9.378000
H 12.731100 6.309200 9.210800
N 7.126200 5.579400 8.220400
H 8.593100 4.121700 8.353800
C 4.956600 8.340400 12.457000
C 4.251100 8.318000 11.262700
C 4.948300 8.106300 10.075500
H 3.182900 8.466000 11.251000
N 6.279600 7.919700 10.053600
C 4.283200 8.079100 8.786400
C 6.946800 7.937600 11.195400
C 6.329300 8.144700 12.423500
H 8.012700 7.780500 11.133900
H 6.914400 8.151200 13.328700
H 4.449500 8.504800 13.394800
N 4.973300 7.977500 7.715600
H 3.199300 8.170700 8.770500
C 8.377900 12.297200 7.204300
C 8.585800 11.241600 6.329900
C 8.101000 9.979200 6.669900
H 9.114500 11.391400 5.401800
N 7.438000 9.757200 7.816500
C 8.253900 8.847500 5.782400
C 7.234000 10.770900 8.642400
C 7.684000 12.058900 8.382000
H 6.692700 10.551400 9.549800
H 7.497400 12.853100 9.086400
H 8.746400 13.284300 6.972700
N 7.739800 7.710200 6.070700
H 8.775800 9.026600 4.845500
Zn -7.851400 -7.928000 7.165800
C -12.292400 -6.422800 8.352200
C -11.175000 -5.601200 8.320100
C -9.955000 -6.142400 7.919000
H -11.246300 -4.563100 8.603700
N -9.833500 -7.432600 7.562800
C -8.749100 -5.342000 7.841400
C -10.902800 -8.211400 7.588600
C -12.155900 -7.751200 7.975100
H -10.757400 -9.237200 7.286000
H -13.001500 -8.419500 7.978600
H -13.251200 -6.036000 8.660300
N -7.616900 -5.879700 7.582700
H -8.848200 -4.273600 8.021700
C -6.751900 -9.414100 11.705600
C -5.879500 -9.462200 10.629700
C -6.312100 -8.992800 9.390000
H -4.882200 -9.855700 10.746300
N -7.546100 -8.496900 9.203500
C -5.443600 -9.004700 8.235500
C -8.371400 -8.450300 10.236800
C -8.022600 -8.895100 11.505800
H -9.355800 -8.047500 10.055600
H -8.733600 -8.839300 12.314000
H -6.450000 -9.772800 12.677200
N -5.809000 -8.463500 7.133400
H -4.464000 -9.461000 8.355500
C -7.985500 -12.415500 5.261000
C -7.899600 -11.255800 4.505900
C -7.974800 -10.024700 5.153300
H -7.779300 -11.303100 3.435300
N -8.114600 -9.927300 6.485900
C -7.963100 -8.774500 4.422800
C -8.213500 -11.037500 7.199200
C -8.156500 -12.304800 6.633100
H -8.345600 -10.917500 8.264100
H -8.244700 -13.179700 7.256700
H -7.929000 -13.385800 4.792800
N -8.093300 -7.667700 5.048200
H -7.906600 -8.825800 3.337800
Zn -6.840700 8.165900 7.584000
C -4.668800 12.441900 8.495300
C -4.026000 11.214700 8.553900
C -4.741200 10.063900 8.226200
H -2.990600 11.149100 8.848100
N -6.032000 10.109200 7.855000
C -4.123000 8.755500 8.229100
C -6.637400 11.284000 7.793100
C -5.998900 12.478500 8.103000
H -7.672700 11.278400 7.488600
H -6.535400 13.411300 8.041200
H -4.146400 13.351400 8.747600
N -4.774500 7.731300 7.820400
H -3.081800 8.695500 8.535900
C -7.541000 7.293000 12.362100
C -7.699700 6.345900 11.362900
C -7.463800 6.715000 10.039000
H -8.005900 5.339800 11.602000
N -7.080700 7.956100 9.700800
C -7.638400 5.772300 8.957600
C -6.936100 8.856800 10.660600
C -7.153900 8.575900 12.002900
H -6.639900 9.848100 10.354600
H -7.024100 9.346300 12.745500
H -7.718000 7.040800 13.395900
N -7.497200 6.122900 7.734900
H -7.923500 4.759500 9.234400
C -11.315000 9.796400 6.512400
C -10.343100 9.510700 5.565500
C -9.105100 9.036500 5.995700
H -10.538300 9.657300 4.515000
N -8.826600 8.844400 7.295800
C -8.041200 8.726700 5.063600
C -9.758400 9.117400 8.193700
C -11.018000 9.594500 7.852400
H -9.498000 8.951700 9.227700
H -11.745100 9.801800 8.620500
H -12.283200 10.167300 6.214600
N -6.885200 8.377200 5.487800
H -8.259700 8.823800 4.002000
Zn 7.484600 7.214000 -8.214900
C 8.528000 5.109700 -12.491400
C 8.689800 4.490800 -11.260900
C 8.308000 5.174900 -10.108200
H 9.104800 3.497700 -11.193700
N 7.789500 6.413400 -10.153700
C 8.413600 4.572700 -8.795500
C 7.628600 6.995100 -11.331300
C 7.982100 6.384400 -12.528300
H 7.204900 7.987700 -11.325600
H 7.835500 6.899700 -13.463600
H 8.818800 4.610500 -13.402500
N 7.954900 5.178700 -7.766500
H 8.845300 3.576200 -8.736200
C 12.183500 8.273100 -7.339700
C 11.179700 8.333900 -6.386200
C 9.873500 8.020300 -6.760100
H 11.401100 8.625600 -5.371800
N 9.559100 7.651000 -8.011400
C 8.782500 8.099600 -5.814900
C 10.521900 7.603000 -8.919200
C 11.846900 7.904600 -8.634300
H 10.231200 7.317100 -9.918400
H 12.593400 7.851800 -9.410000
H 13.204100 8.511400 -7.083800
N 7.570900 7.909400 -6.178900
H 9.038700 8.362500 -4.790600
C 5.941200 11.570700 -9.763800
C 5.102600 10.524700 -9.409500
C 5.669300 9.324300 -8.984500
H 4.031100 10.634500 -9.465300
N 6.999300 9.152000 -8.904200
C 4.857300 8.186100 -8.608300
C 7.794000 10.152800 -9.244900
C 7.313100 11.381700 -9.680100
H 8.855900 9.974600 -9.170100
H 7.999800 12.169000 -9.945400
H 5.537100 12.513600 -10.097400
N 5.403100 7.065600 -8.315300
H 3.776900 8.315300 -8.609300
Zn 8.023500 -7.155200 -7.449700
C 9.217500 -11.622500 -5.951000
C 8.974700 -10.549300 -5.107100
C 8.647000 -9.315500 -5.666700
H 9.042200 -10.664000 -4.036800
N 8.553100 -9.137400 -6.995200
C 8.396200 -8.146800 -4.849300
C 8.784800 -10.165000 -7.795400
C 9.121600 -11.427100 -7.321200
H 8.699300 -9.982100 -8.855600
H 9.301700 -12.234600 -8.012000
H 9.475600 -12.591100 -5.552200
N 8.202600 -7.002200 -5.390800
H 8.408200 -8.276300 -3.769200
C 12.309500 -5.444700 -9.016300
C 11.105800 -4.767600 -9.153300
C 9.956800 -5.324200 -8.598000
H 11.059000 -3.826600 -9.678000
N 9.976100 -6.494900 -7.939600
C 8.670300 -4.657000 -8.664200
C 11.127900 -7.131300 -7.802900
C 12.322300 -6.645700 -8.322700
H 11.102200 -8.065700 -7.262900
H 13.236800 -7.200600 -8.190600
H 13.217700 -5.044600 -9.439300
N 7.685400 -5.115200 -7.997200
H 8.597800 -3.747200 -9.256300
C 6.681900 -7.945900 -12.087300
C 5.798600 -7.832400 -11.025500
C 6.309000 -7.655300 -9.740300
H 4.733600 -7.884400 -11.186500
N 7.627300 -7.578600 -9.500500
C 5.442000 -7.581200 -8.585900
C 8.466300 -7.702700 -10.518000
C 8.043800 -7.887300 -11.827400
H 9.519200 -7.657100 -10.284800
H 8.766900 -7.983100 -12.621000
H 6.321100 -8.082700 -13.094800
N 5.921600 -7.532400 -7.400600
H 4.370200 -7.621800 -8.768000
Zn -8.269200 -7.098600 -7.161500
C -10.392400 -5.740600 -11.360200
C -10.170200 -4.894300 -10.284200
C -9.509000 -5.392400 -9.163600
H -10.500200 -3.868000 -10.313200
N -9.083600 -6.664000 -9.090200
C -9.216400 -4.558400 -8.017900
C -9.290500 -7.462900 -10.123700
C -9.939300 -7.049000 -11.280700
H -8.932500 -8.476900 -10.032800
H -10.087900 -7.739400 -12.095100
H -10.905300 -5.389500 -12.242000
N -8.489000 -5.004900 -7.065900
H -9.598600 -3.540200 -8.024500
C -12.629400 -6.883200 -4.931500
C -11.411900 -6.849000 -4.270200
C -10.238700 -6.987700 -5.010200
H -11.369600 -6.719900 -3.200500
N -10.250500 -7.141200 -6.344700
C -8.940900 -7.017200 -4.374200
C -11.417900 -7.191100 -6.967500
C -12.633100 -7.067700 -6.306500
H -11.390100 -7.341800 -8.035700
H -13.556100 -7.117000 -6.860900
H -13.557100 -6.777800 -4.391000
N -7.874800 -7.179700 -5.065100
H -8.920000 -6.947500 -3.289400
C -7.772200 -11.753700 -8.419200
C -6.802900 -10.784100 -8.628800
C -7.035600 -9.490100 -8.165400
H -5.886600 -11.023200 -9.145100
N -8.167100 -9.157300 -7.521400
C -6.057700 -8.434400 -8.327600
C -9.084700 -10.088000 -7.316900
C -8.933000 -11.400700 -7.746000
H -9.973200 -9.780000 -6.787600
H -9.706200 -12.127200 -7.556100
H -7.624300 -12.763500 -8.768800
N -6.323800 -7.233900 -7.969900
H -5.096700 -8.708600 -8.757500
Zn 7.754300 -7.870600 7.469600
C 11.235100 -5.539100 9.960000
C 9.899700 -5.172300 9.930300
C 8.995300 -5.969400 9.226900
H 9.560300 -4.288300 10.446300
N 9.384400 -7.070800 8.567600
C 7.590500 -5.645200 9.193000
C 10.660100 -7.420900 8.607100
C 11.623200 -6.690900 9.290100
H 10.928100 -8.322700 8.079000
H 12.649400 -7.020400 9.296900
H 11.959000 -4.946900 10.497600
N 6.728400 -6.332100 8.529800
H 7.296700 -4.766400 9.761800
C 6.149600 -10.725700 11.069600
C 5.591100 -10.665700 9.803500
C 6.183400 -9.845200 8.841800
H 4.715800 -11.247100 9.560700
N 7.270200 -9.105800 9.110100
C 5.662200 -9.781400 7.498800
C 7.800800 -9.170800 10.320400
C 7.281000 -9.966300 11.332500
H 8.680500 -8.571200 10.495200
H 7.754200 -9.990100 12.300700
H 5.718600 -11.352700 11.834400
N 6.169200 -9.023100 6.591400
H 4.806400 -10.420000 7.295300
C 10.760400 -10.830700 5.060400
C 10.595200 -9.486100 4.768600
C 9.711600 -8.732200 5.541500
H 11.141900 -9.026600 3.960500
N 9.013700 -9.273300 6.551600
C 9.508700 -7.324700 5.291100
C 9.175200 -10.557400 6.826000
C 10.038600 -11.377600 6.112000
H 8.600300 -10.950200 7.650700
H 10.142700 -12.417100 6.377300
H 11.439300 -11.441000 4.485500
N 8.640200 -6.632400 5.936500
H 10.118500 -6.882100 4.506800
Zn -7.849600 7.682500 -7.610000
C -10.225600 11.857100 -6.726500
C -8.855600 11.677200 -6.634900
C -8.331900 10.387900 -6.764400
H -8.199500 12.517000 -6.467100
N -9.112000 9.317300 -6.979700
C -6.923200 10.144100 -6.568400
C -10.421300 9.497700 -7.047100
C -11.026300 10.741400 -6.926600
H -11.026900 8.618300 -7.197200
H -12.098400 10.831800 -6.988200
H -10.660100 12.840500 -6.637600
N -6.417900 8.962100 -6.574800
H -6.329400 11.021300 -6.321000
C -7.659500 9.550400 -12.203300
C -7.214700 8.295300 -11.823000
C -7.215300 7.958100 -10.467900
H -6.874500 7.585200 -12.560400
N -7.632000 8.803800 -9.512400
C -6.703400 6.680500 -10.038100
C -8.045800 10.003100 -9.888300
C -8.078300 10.424500 -11.211600
H -8.365800 10.678900 -9.112600
H -8.423600 11.416500 -11.453500
H -7.675500 9.842500 -13.241600
N -6.687000 6.308600 -8.810800
H -6.280000 6.055100 -10.822300
C -12.187900 5.791200 -8.986000
C -11.615500 5.661100 -7.732500
C -10.343400 6.193600 -7.508500
H -12.143400 5.161200 -6.935800
N -9.648800 6.819400 -8.473000
C -9.705600 6.045000 -6.225400
C -10.202100 6.930000 -9.670200
C -11.463600 6.438600 -9.976900
H -9.626800 7.430700 -10.431500
H -11.864300 6.563100 -10.969500
H -13.171700 5.398900 -9.190300
N -8.519100 6.476700 -5.977400
H -10.261400 5.472900 -5.485100
&END COORD

! Atom Basis Set
! --------------
&KIND C
  BASIS_SET DZVP-MOLOPT-GTH
  POTENTIAL GTH-PBE-q4
&END KIND
&KIND H
  BASIS_SET DZVP-MOLOPT-GTH
  POTENTIAL GTH-PBE-q1
&END KIND
&KIND N
  BASIS_SET DZVP-MOLOPT-GTH
  POTENTIAL GTH-PBE-q5
&END KIND
&KIND O
  BASIS_SET DZVP-MOLOPT-GTH
  POTENTIAL GTH-PBE-q6
&END KIND
&KIND Zn
  BASIS_SET  DZVP-MOLOPT-SR-GTH
  POTENTIAL  GTH-PBE-q12
&END KIND
&END SUBSYS
&END FORCE_EVAL

! Geometry Optimization
! ---------------------
&MOTION
  &GEO_OPT
    OPTIMIZER BFGS
    MAX_ITER 2000
    MAX_DR  [bohr] 0.003
    &BFGS
    &END
  &END GEO_OPT
&END MOTION

