&GLOBAL
  PROJECT_NAME C_cl1_quad2_12_tl_optc_opt
  RUN_TYPE GEO_OPT
  EXTENDED_FFT_LENGTHS
&END GLOBAL

! Force Evaluation
! ----------------
&FORCE_EVAL
  METHOD QS
  &DFT
    BASIS_SET_FILE_NAME BASIS_MOLOPT
    POTENTIAL_FILE_NAME GTH_POTENTIALS
    CHARGE 16
    &QS
      EPS_DEFAULT 1.0E-10
    &END QS
    &MGRID
      NGRIDS 5
     CUTOFF 700
     REL_CUTOFF 60
    &END MGRID
    &SCF
      SCF_GUESS ATOMIC
      EPS_SCF 5.0E-7
      MAX_SCF 300
      &OT
        PRECONDITIONER FULL_SINGLE_INVERSE
        MINIMIZER DIIS
      &END OT
      &OUTER_SCF ! Repeat the inner SCF cycle 10 times
        MAX_SCF 10
        EPS_SCF 5.0E-7 ! Must match the above
      &END
      &PRINT
        &RESTART ON
        FILENAME C_cl1_quad2_12_tl_optc_opt.res
      &END
      &END
    &END SCF

    ! Exchange-Correlation
    ! -------------------
    &XC
      &VDW_POTENTIAL
        POTENTIAL_TYPE PAIR_POTENTIAL
        &PAIR_POTENTIAL
          TYPE DFTD3
          CALCULATE_C9_TERM .TRUE.
          PARAMETER_FILE_NAME dftd3.dat
          REFERENCE_FUNCTIONAL PBE
          R_CUTOFF 10.
          EPS_CN 0.01
        &END PAIR_POTENTIAL
      &END VDW_POTENTIAL
      &XC_FUNCTIONAL PBE
      &END XC_FUNCTIONAL
    &END XC
  &END DFT
  &PRINT
    &FORCES ON
    &END FORCES
  &END PRINT

&SUBSYS
! Cell
! ----
&CELL
  ABC 56.26 56.26 56.26
  ALPHA_BETA_GAMMA 90.0 90.0 90.0
  PERIODIC NONE
&END CELL

! Coordinates
! -----------
&COORD
C -6.575900 4.499500 8.152200
C -6.401200 3.639000 9.241100
C -5.369200 2.725500 9.237700
C -4.485600 2.647200 8.159400
C -3.468100 1.585200 8.124300
C -3.870900 0.282700 8.295600
C -2.948400 -0.772100 8.189400
C -3.393600 -2.097400 8.294100
C -2.516200 -3.151700 8.176700
C -3.081100 -4.505600 8.286000
C -2.778700 -5.533800 7.395700
C -3.485400 -6.724400 7.425300
C -4.531900 -6.888700 8.331100
C -4.787600 -5.896500 9.277000
C -4.055200 -4.732800 9.263100
C -1.159000 -2.886600 7.940500
C -0.666100 -1.593300 7.854300
C 0.750400 -1.304700 7.632900
C 1.708000 -2.301500 7.535900
C 3.069800 -2.016000 7.340300
C 4.126600 -3.036500 7.365900
C 5.259400 -2.884200 6.559300
C 6.375000 -3.668800 6.748100
C 6.368600 -4.669400 7.724000
C 5.202400 -4.907300 8.452100
C 4.103600 -4.087800 8.284200
C 3.464400 -0.701400 7.227400
C 2.538200 0.343100 7.359100
C 2.988500 1.673800 7.351200
C 2.123500 2.705900 7.621500
C 2.730100 4.050500 7.739200
C 3.176700 4.718200 6.600500
C 3.999300 5.818900 6.714500
C 4.386700 6.270900 7.975700
C 3.838200 5.687900 9.116600
C 3.023400 4.577500 8.994000
C 0.765100 2.434200 7.810300
C 0.264400 1.142800 7.737400
C -1.157200 0.855300 7.877600
C -2.111400 1.858300 7.900300
C -1.571400 -0.501400 7.975800
C 1.164000 0.056700 7.565500
C -4.634400 3.541800 7.100000
C -5.664500 4.460200 7.095200
H -7.051900 3.714500 10.099600
H -5.239000 2.067700 10.083700
H -4.909800 0.050800 8.474300
H -4.447400 -2.277300 8.441300
H -2.017500 -5.387600 6.645700
H -3.292000 -7.499600 6.699800
H -5.544100 -6.063400 10.026600
H -4.245600 -3.982600 10.014600
H -0.497600 -3.732200 7.851700
H 1.423700 -3.337900 7.608100
H 5.265700 -2.133100 5.785900
H 7.249500 -3.546500 6.128400
H 5.198200 -5.683900 9.199700
H 3.239100 -4.234500 8.912400
H 4.505700 -0.447400 7.109400
H 4.035800 1.872300 7.184800
H 2.902100 4.349900 5.624900
H 4.339200 6.356600 5.843900
H 4.119500 6.056000 10.092000
H 2.650200 4.091400 9.882600
H 0.114300 3.265000 8.026000
H -1.825500 2.888600 7.771200
H -3.958800 3.490200 6.261100
H -5.813400 5.118500 6.254400
C 8.592300 5.987900 -4.686100
C 7.771300 4.877600 -4.904600
C 7.845700 3.773000 -4.081800
C 8.749200 3.739500 -3.019900
C 8.660700 2.715900 -1.970200
C 8.621800 3.162400 -0.669500
C 8.415800 2.267000 0.390300
C 8.257000 2.761100 1.693900
C 8.025900 1.908800 2.748200
C 7.782000 2.509200 4.068000
C 8.472400 2.130600 5.217600
C 8.299200 2.821800 6.402300
C 7.431200 3.917100 6.455900
C 6.707200 4.269700 5.317900
C 6.872600 3.567000 4.147200
C 8.008000 0.527000 2.516300
C 8.153900 -0.004600 1.245100
C 8.120900 -1.441200 0.994300
C 8.078500 -2.368000 2.021500
C 8.008700 -3.749400 1.781200
C 7.993200 -4.734300 2.869600
C 7.188300 -5.871800 2.768700
C 7.230600 -6.859700 3.727200
C 8.058400 -6.718600 4.844100
C 8.849100 -5.575400 4.963600
C 8.821300 -4.602500 3.984400
C 7.984700 -4.197200 0.481000
C 8.067300 -3.295000 -0.591400
C 8.098700 -3.784500 -1.905000
C 8.186700 -2.926900 -2.976800
C 8.229400 -3.543900 -4.312500
C 9.098500 -4.622600 -4.497800
C 9.038400 -5.391000 -5.636500
C 8.115400 -5.079600 -6.635000
C 7.316700 -3.943900 -6.507900
C 7.368500 -3.189700 -5.348100
C 8.245900 -1.545700 -2.746500
C 8.246400 -1.016600 -1.464500
C 8.370500 0.416600 -1.208500
C 8.518900 1.343900 -2.227800
C 8.318700 0.873500 0.138600
C 8.142700 -1.898000 -0.352600
C 9.660200 4.792100 -2.889500
C 9.592700 5.896700 -3.708600
H 7.034000 4.910300 -5.688400
H 7.160000 2.953500 -4.226400
H 8.700700 4.216700 -0.453900
H 8.324700 3.825700 1.853900
H 9.182600 1.319300 5.174900
H 8.890800 2.563300 7.267400
H 6.000200 5.077400 5.386700
H 6.293000 3.830900 3.277400
H 7.835700 -0.115000 3.363400
H 8.086400 -2.042900 3.047900
H 6.520600 -5.974500 1.928700
H 6.594800 -7.727000 3.647800
H 9.532200 -5.493100 5.792900
H 9.479100 -3.750900 4.066600
H 7.955600 -5.252900 0.261300
H 8.042800 -4.850200 -2.063700
H 9.821300 -4.863500 -3.733700
H 9.711900 -6.219900 -5.779500
H 6.605900 -3.713100 -7.286300
H 6.703800 -2.349000 -5.227900
H 8.329800 -0.903000 -3.607000
H 8.558600 1.027100 -3.256600
H 10.428400 4.742400 -2.133000
H 10.326000 6.681800 -3.606800
C 4.989800 8.382000 -6.155900
C 4.019500 9.393500 -6.129900
C 3.153800 9.495600 -5.064300
C 3.227200 8.607300 -3.987400
C 2.151000 8.565100 -2.990500
C 0.853200 8.592000 -3.446700
C -0.222000 8.413100 -2.562400
C -1.529300 8.348800 -3.068000
C -2.594800 8.088800 -2.238000
C -3.920500 7.930300 -2.852700
C -4.755300 6.857300 -2.541500
C -5.922500 6.646400 -3.248600
C -6.277400 7.494200 -4.300600
C -5.473600 8.601100 -4.575600
C -4.318900 8.816500 -3.856400
C -2.367600 7.948900 -0.860100
C -1.102200 8.066300 -0.307600
C -0.864700 7.980100 1.131400
C -1.897600 7.883900 2.050900
C -1.661100 7.773100 3.430200
C -2.732400 7.681100 4.433000
C -2.593700 6.786500 5.497800
C -3.496300 6.773200 6.537300
C -4.591800 7.641100 6.527600
C -4.760400 8.507600 5.447300
C -3.838500 8.529400 4.417400
C -0.363800 7.780500 3.887400
C 0.711600 7.919700 2.997100
C 2.020000 7.965600 3.499900
C 3.098000 8.082600 2.652600
C 4.434700 8.056900 3.260200
C 4.655800 8.774700 4.440200
C 5.785500 8.558400 5.196000
C 6.742200 7.629600 4.777800
C 6.593000 7.016000 3.529400
C 5.447000 7.221800 2.786800
C 2.873800 8.165500 1.270900
C 1.597200 8.150200 0.732100
C 1.355800 8.281900 -0.701400
C 2.387800 8.405800 -1.616800
C 0.012800 8.260700 -1.170500
C 0.478200 8.015800 1.600600
C 4.278400 7.690000 -3.955900
C 5.149900 7.583600 -5.019000
H 3.960300 10.111800 -6.933100
H 2.408200 10.276100 -5.063800
H 0.647500 8.698800 -4.500500
H -1.674900 8.460200 -4.131100
H -4.464100 6.165700 -1.766900
H -6.536300 5.784500 -3.042800
H -5.786200 9.309100 -5.323700
H -3.720300 9.689200 -4.067900
H -3.223400 7.765800 -0.232600
H -2.923000 7.881200 1.721400
H -1.764400 6.097600 5.505300
H -3.387300 6.070600 7.348000
H -5.576900 9.211200 5.459100
H -3.956000 9.244000 3.617000
H -0.153200 7.726100 4.944000
H 2.166700 7.882800 4.565400
H 3.922600 9.492600 4.773500
H 5.947400 9.106400 6.109000
H 7.334500 6.308200 3.195300
H 5.305400 6.686600 1.861400
H 3.736100 8.280300 0.636100
H 3.413900 8.409400 -1.290200
H 4.378400 7.020800 -3.116400
H 5.932100 6.843200 -4.998700
C -7.655200 6.201800 4.687200
C -8.357900 5.019100 4.918200
C -8.192900 3.939800 4.072500
C -7.305700 4.004700 2.998200
C -7.237000 2.950600 1.977900
C -7.176800 3.349200 0.662600
C -7.182500 2.407200 -0.375500
C -7.146600 2.849800 -1.705100
C -7.221200 1.960100 -2.750500
C -7.264100 2.559000 -4.096600
C -8.358000 2.387800 -4.942800
C -8.505400 3.178100 -6.066800
C -7.560000 4.165900 -6.359800
C -6.423400 4.286800 -5.557000
C -6.274200 3.480700 -4.450900
C -7.289300 0.588800 -2.473300
C -7.259700 0.102000 -1.174100
C -7.232800 -1.326100 -0.873600
C -7.217900 -2.290800 -1.867400
C -7.133600 -3.661200 -1.577900
C -7.148600 -4.699400 -2.616300
C -6.304900 -5.806100 -2.492700
C -6.393400 -6.865300 -3.366800
C -7.311400 -6.829300 -4.420000
C -8.126400 -5.708400 -4.577700
C -8.050000 -4.661800 -3.679700
C -7.066400 -4.062100 -0.263900
C -7.114500 -3.122000 0.776600
C -7.084000 -3.563600 2.107400
C -7.198500 -2.675900 3.151500
C -7.241000 -3.263200 4.502300
C -8.330000 -3.081500 5.353200
C -8.460600 -3.841200 6.500300
C -7.502800 -4.810600 6.814100
C -6.376900 -4.947400 5.999500
C -6.244000 -4.171100 4.870400
C -7.296600 -1.306000 2.873800
C -7.261100 -0.817500 1.575900
C -7.265300 0.611900 1.276600
C -7.279500 1.578300 2.269900
C -7.232600 1.019500 -0.087200
C -7.199800 -1.734900 0.489700
C -6.544800 5.165100 2.828500
C -6.729400 6.259400 3.642500
H -9.078600 4.983600 5.718900
H -8.792200 3.055600 4.223100
H -7.173100 4.396700 0.406400
H -7.106000 3.910600 -1.892700
H -9.127000 1.674000 -4.690300
H -9.397400 3.091900 -6.668900
H -5.671300 5.012200 -5.823900
H -5.393200 3.573000 -3.835900
H -7.342300 -0.083900 -3.312400
H -7.248200 -2.006300 -2.905300
H -5.571600 -5.829200 -1.703100
H -5.732500 -7.711500 -3.269500
H -8.864900 -5.704100 -5.363600
H -8.727400 -3.827300 -3.778000
H -7.026900 -5.110100 -0.012100
H -7.015600 -4.622900 2.296500
H -9.107000 -2.380200 5.089600
H -9.347100 -3.744200 7.109100
H -5.616400 -5.659300 6.276600
H -5.368100 -4.275900 4.250200
H -7.375600 -0.635400 3.713000
H -7.302500 1.294200 3.308600
H -5.804100 5.207500 2.046700
H -6.137700 7.151500 3.511900
C -6.222900 -4.926800 -7.659800
C -5.035100 -5.141500 -8.361000
C -4.016900 -4.209700 -8.298800
C -4.142100 -3.065100 -7.509500
C -3.149900 -1.983300 -7.540000
C -3.610900 -0.686500 -7.533800
C -2.724700 0.395200 -7.642400
C -3.234600 1.700600 -7.686000
C -2.395600 2.783400 -7.808800
C -3.037400 4.107000 -7.880900
C -2.709700 5.170200 -7.043700
C -3.485900 6.316800 -7.026400
C -4.616100 6.404700 -7.838300
C -4.903200 5.375900 -8.735600
C -4.115200 4.249400 -8.759500
C -1.012600 2.570500 -7.886700
C -0.465500 1.295500 -7.877600
C 0.966900 1.057500 -8.036400
C 1.875700 2.089900 -8.200600
C 3.246000 1.854300 -8.391900
C 4.241400 2.926800 -8.492200
C 5.319600 2.799100 -9.374500
C 6.397900 3.651700 -9.308900
C 6.431900 4.670900 -8.346900
C 5.286200 4.895300 -7.576500
C 4.214000 4.030900 -7.639200
C 3.706500 0.557200 -8.401300
C 2.829100 -0.518800 -8.200600
C 3.336900 -1.826700 -8.165800
C 2.509100 -2.898400 -7.925200
C 3.108400 -4.237100 -7.843700
C 4.095500 -4.600600 -8.763100
C 4.786500 -5.784500 -8.630900
C 4.500000 -6.652700 -7.576800
C 3.462400 -6.329400 -6.698100
C 2.783500 -5.134400 -6.826300
C 1.135400 -2.671500 -7.750700
C 0.583000 -1.403400 -7.827500
C -0.854200 -1.170200 -7.721600
C -1.767000 -2.208300 -7.632900
C -1.327200 0.171800 -7.743200
C 1.440100 -0.284900 -8.022700
C -5.301200 -2.907200 -6.743200
C -6.339900 -3.805400 -6.834300
H -4.950600 -6.006700 -8.998800
H -3.134200 -4.354700 -8.901600
H -4.668000 -0.475800 -7.500500
H -4.301500 1.844400 -7.615200
H -1.871100 5.083800 -6.371000
H -3.273900 7.116000 -6.333200
H -5.728400 5.486500 -9.419500
H -4.338800 3.461900 -9.462200
H -0.384000 3.438000 -7.998100
H 1.543100 3.114100 -8.215600
H 5.312000 2.017600 -10.118600
H 7.205500 3.542900 -10.016300
H 5.267600 5.722700 -6.887300
H 3.371600 4.180200 -6.983100
H 4.758700 0.352400 -8.523400
H 4.397900 -1.969200 -8.298200
H 4.314700 -3.952100 -9.597300
H 5.520400 -6.069400 -9.365300
H 3.246000 -6.995700 -5.878600
H 2.019100 -4.871100 -6.112500
H 0.509300 -3.531100 -7.581200
H -1.430600 -3.231200 -7.629100
H -5.385500 -2.065900 -6.075000
H -7.231300 -3.678200 -6.241400
C 4.977600 -8.312600 6.740400
C 4.242000 -9.485200 6.541900
C 3.388000 -9.585600 5.464800
C 3.244000 -8.527800 4.564600
C 2.183000 -8.565600 3.546400
C 0.904700 -8.826900 3.979800
C -0.184100 -8.711100 3.101100
C -1.492900 -8.805800 3.599200
C -2.577100 -8.567600 2.785400
C -3.908000 -8.500200 3.401800
C -4.810600 -7.487100 3.074900
C -5.981400 -7.328100 3.787600
C -6.270600 -8.164800 4.868200
C -5.405600 -9.222300 5.152600
C -4.250100 -9.390900 4.422600
C -2.360800 -8.322400 1.420200
C -1.089900 -8.295300 0.872700
C -0.862800 -8.066400 -0.549100
C -1.889800 -8.116300 -1.478900
C -1.671900 -7.826900 -2.830900
C -2.722900 -7.948600 -3.865600
C -3.065700 -9.208600 -4.352300
C -3.880600 -9.335000 -5.461100
C -4.416700 -8.195200 -6.059000
C -4.154000 -6.937300 -5.517900
C -3.281600 -6.817100 -4.454200
C -0.415400 -7.469100 -3.253600
C 0.673400 -7.517400 -2.366000
C 1.977400 -7.342900 -2.852900
C 3.068100 -7.590800 -2.050500
C 4.381600 -7.637000 -2.711900
C 4.747100 -6.639300 -3.620700
C 5.825900 -6.809600 -4.460100
C 6.593400 -7.974400 -4.386600
C 6.292200 -8.932400 -3.413200
C 5.194700 -8.764900 -2.592600
C 2.864900 -7.901500 -0.697600
C 1.596000 -7.969000 -0.145400
C 1.372100 -8.240200 1.271800
C 2.404800 -8.262600 2.195300
C 0.038000 -8.427500 1.728500
C 0.464800 -7.834700 -0.999000
C 4.029600 -7.387800 4.731900
C 4.892100 -7.281100 5.803600
H 4.363500 -10.319600 7.216500
H 2.822100 -10.493400 5.318900
H 0.717600 -9.055000 5.018000
H -1.626400 -9.000100 4.652000
H -4.568900 -6.795400 2.283700
H -6.648800 -6.510600 3.567200
H -5.670400 -9.929300 5.920000
H -3.605700 -10.227900 4.643000
H -3.224400 -8.161500 0.797000
H -2.885300 -8.398000 -1.178300
H -2.658100 -10.093700 -3.887800
H -4.123300 -10.310600 -5.855400
H -4.589700 -6.068000 -5.979800
H -3.030100 -5.839400 -4.076500
H -0.240800 -7.226500 -4.290100
H 2.108400 -7.103700 -3.895700
H 4.167100 -5.732100 -3.675800
H 6.100600 -6.049300 -5.173800
H 6.865900 -9.845600 -3.362500
H 4.934100 -9.543500 -1.892000
H 3.736100 -8.090000 -0.092400
H 3.417100 -8.056200 1.890500
H 3.930900 -6.566200 4.040700
H 5.460100 -6.379700 5.967500
Zn 7.476000 6.840300 7.739100
C 7.216200 11.400400 9.432100
C 6.139800 10.524600 9.408200
C 6.316200 9.261300 8.850000
H 5.182800 10.816600 9.811100
N 7.495200 8.866000 8.339900
C 5.233200 8.299900 8.758200
C 8.516500 9.706000 8.359700
C 8.425700 10.985800 8.894200
H 9.443200 9.347300 7.938400
H 9.284500 11.637200 8.893400
H 7.113500 12.385000 9.861000
N 5.391200 7.239700 8.066600
H 4.296700 8.539800 9.256500
C 7.103300 5.112000 12.347000
C 7.044900 4.319700 11.211700
C 7.238700 4.912400 9.965000
H 6.851800 3.261500 11.286500
N 7.467600 6.228500 9.824600
C 7.245100 4.131300 8.750100
C 7.543900 6.974500 10.916200
C 7.370000 6.465000 12.196300
H 7.763200 8.021200 10.775800
H 7.447800 7.117300 13.051000
H 6.956600 4.687800 13.327900
N 7.289200 4.698500 7.603600
H 7.221200 3.049300 8.855100
C 12.191900 6.017400 6.822700
C 11.265000 6.359400 5.849900
C 9.951500 6.623000 6.233900
H 11.554100 6.426200 4.813200
N 9.556400 6.545400 7.516000
C 8.940800 7.017200 5.275800
C 10.447100 6.226300 8.441300
C 11.776500 5.954000 8.144900
H 10.090200 6.186000 9.459100
H 12.465900 5.700800 8.933900
H 13.217000 5.809200 6.558700
N 7.752000 7.278500 5.670800
H 9.246000 7.116100 4.237200
Zn 7.800800 -7.499700 7.946400
C 12.193300 -5.661000 8.887800
C 11.057900 -4.893700 8.673700
C 9.856700 -5.538500 8.384000
H 11.100800 -3.817800 8.734400
N 9.768900 -6.877100 8.302400
C 8.629300 -4.804600 8.151200
C 10.855500 -7.604100 8.502200
C 12.091600 -7.041700 8.798200
H 10.741300 -8.674300 8.422800
H 12.950700 -7.674000 8.953000
H 13.139000 -5.195400 9.117300
N 7.519400 -5.421300 7.983700
H 8.688200 -3.718200 8.143300
C 6.495100 -8.386700 12.565600
C 5.704700 -8.664500 11.461000
C 6.169700 -8.313100 10.194500
H 4.745800 -9.144600 11.576400
N 7.358400 -7.715000 10.011900
C 5.376900 -8.540200 9.006900
C 8.102700 -7.442500 11.071500
C 7.715800 -7.757700 12.367900
H 9.047800 -6.955500 10.886200
H 8.358700 -7.518900 13.199300
H 6.166800 -8.651400 13.558600
N 5.778000 -8.118500 7.865700
H 4.415500 -9.031000 9.137000
C 8.482900 -12.268900 7.136700
C 8.356400 -11.316300 6.138100
C 8.245400 -9.973800 6.497100
H 8.348200 -11.605500 5.099200
N 8.245000 -9.576700 7.779400
C 8.164800 -8.929000 5.501100
C 8.384000 -10.489900 8.727400
C 8.505900 -11.846800 8.458100
H 8.403800 -10.131700 9.745500
H 8.618000 -12.551300 9.266200
H 8.569400 -13.316500 6.893800
N 8.109700 -7.696800 5.842200
H 8.207200 -9.236700 4.458500
Zn -7.475800 -7.833600 7.833700
C -6.581300 -12.569400 8.593100
C -5.600800 -11.587500 8.628300
C -5.964800 -10.267700 8.375000
H -4.576100 -11.839800 8.851400
N -7.233200 -9.919300 8.097200
C -5.000600 -9.180600 8.408200
C -8.163300 -10.858700 8.059700
C -7.885700 -12.199500 8.301000
H -9.166100 -10.533700 7.827700
H -8.674900 -12.932500 8.259900
H -6.333400 -13.601300 8.787200
N -5.406900 -7.979700 8.282200
H -3.954800 -9.430500 8.573500
C -8.818100 -6.680100 12.394200
C -8.717700 -5.761600 11.360700
C -8.293100 -6.200300 10.107400
H -8.961300 -4.723400 11.521900
N -7.981300 -7.485600 9.870700
C -8.138100 -5.285700 8.997800
C -8.075900 -8.356500 10.862600
C -8.487600 -8.003600 12.141500
H -7.816900 -9.379000 10.634900
H -8.550100 -8.750200 12.916300
H -9.145000 -6.373300 13.375400
N -7.638700 -5.687000 7.889700
H -8.424100 -4.250400 9.164400
C -12.051300 -7.188800 6.259900
C -10.943700 -7.239100 5.428000
C -9.700000 -7.541400 5.979500
H -11.039900 -7.051100 4.370500
N -9.538600 -7.770400 7.293400
C -8.518600 -7.680900 5.157300
C -10.604500 -7.746000 8.077900
C -11.880600 -7.460600 7.609500
H -10.442900 -7.966500 9.122100
H -12.716200 -7.454800 8.290400
H -13.028300 -6.954200 5.867300
N -7.389500 -7.974100 5.683300
H -8.649700 -7.591500 4.081300
Zn -7.637000 7.456700 7.583500
C -12.273000 6.370300 8.687300
C -11.210000 5.490500 8.818400
C -9.937300 5.908100 8.430200
H -11.361600 4.499400 9.215700
N -9.709600 7.134900 7.933400
C -8.796400 5.025300 8.516600
C -10.730700 7.966500 7.803500
C -12.029700 7.632200 8.164600
H -10.512600 8.942400 7.398200
H -12.827700 8.346300 8.042500
H -13.268900 6.080100 8.983400
N -7.649400 5.386200 8.073000
H -8.970300 4.034400 8.928900
C -6.363900 7.792600 12.277100
C -5.462700 7.694900 11.228500
C -5.948200 7.681600 9.921900
H -4.402800 7.634400 11.417700
N -7.260800 7.749300 9.648900
C -5.056300 7.635300 8.784500
C -8.115000 7.859000 10.654000
C -7.716800 7.884800 11.984100
H -9.160300 7.934300 10.395000
H -8.451800 7.976900 12.767200
H -6.022800 7.804100 13.300500
N -5.507600 7.661600 7.587000
H -3.989100 7.630200 8.996200
C -8.570100 11.987000 6.098400
C -8.483200 10.891700 5.251500
C -8.165100 9.648100 5.793800
H -8.663000 10.998000 4.193400
N -7.938500 9.480700 7.107900
C -8.043700 8.460300 4.972700
C -8.015100 10.529600 7.909900
C -8.327200 11.804200 7.452000
H -7.819200 10.351700 8.956200
H -8.377500 12.630400 8.142300
H -8.818000 12.963400 5.712600
N -7.858200 7.313600 5.510100
H -8.121900 8.584900 3.894700
Zn 7.806800 7.459500 -7.462700
C 8.617600 11.919900 -5.727200
C 8.703300 10.763400 -4.968800
C 8.521000 9.530900 -5.596000
H 8.910100 10.812800 -3.911600
N 8.254300 9.435000 -6.908000
C 8.635500 8.289900 -4.867800
C 8.180700 10.542100 -7.628800
C 8.357700 11.807700 -7.085700
H 7.979600 10.417700 -8.681900
H 8.296000 12.681000 -7.714500
H 8.755800 12.889100 -5.273800
N 8.381700 7.157300 -5.419100
H 8.943700 8.365000 -3.828200
C 12.335300 5.854200 -8.179500
C 11.199100 5.074600 -8.323800
C 9.947600 5.668700 -8.157700
H 11.277700 4.026300 -8.564100
N 9.814500 6.968700 -7.851400
C 8.729300 4.914100 -8.326400
C 10.903000 7.709800 -7.720800
C 12.185000 7.200400 -7.877500
H 10.749400 8.752200 -7.487300
H 13.041800 7.845100 -7.767700
H 13.317800 5.426400 -8.304100
N 7.574300 5.434600 -8.109600
H 8.842600 3.879300 -8.638600
C 6.378600 8.369500 -12.016300
C 5.556600 8.481600 -10.906600
C 6.098500 8.258600 -9.640500
H 4.515600 8.740500 -11.017200
N 7.388000 7.927900 -9.468500
C 5.302300 8.402900 -8.445600
C 8.169200 7.826500 -10.531500
C 7.713400 8.041300 -11.825400
H 9.201500 7.570600 -10.347800
H 8.390100 7.955000 -12.659900
H 5.991900 8.539300 -13.009000
N 5.777400 8.138800 -7.281300
H 4.280300 8.745600 -8.584800
Zn 7.413700 -8.014000 -7.462200
C 7.952400 -7.293700 -12.255900
C 8.112900 -6.294300 -11.306200
C 7.902600 -6.604300 -9.965100
H 8.400300 -5.296800 -11.599000
N 7.546000 -7.837600 -9.566300
C 8.062500 -5.617500 -8.910500
C 7.388200 -8.785200 -10.475300
C 7.581000 -8.561700 -11.833800
H 7.095400 -9.757800 -10.109800
H 7.442000 -9.363300 -12.540800
H 8.111500 -7.087600 -13.302800
N 7.972200 -5.982100 -7.692500
H 8.283100 -4.592500 -9.200300
C 11.957900 -9.608600 -6.600400
C 10.995900 -9.440000 -5.616700
C 9.743700 -8.943300 -5.976400
H 11.210700 -9.686400 -4.588900
N 9.440800 -8.626600 -7.246600
C 8.706900 -8.719900 -4.993800
C 10.365500 -8.785100 -8.179500
C 11.638100 -9.271000 -7.907700
H 10.086600 -8.519600 -9.187600
H 12.356600 -9.384500 -8.703000
H 12.935500 -9.993600 -6.356100
N 7.604800 -8.159400 -5.327300
H 8.923400 -9.011100 -3.969300
C 5.644900 -12.498100 -6.666700
C 4.871100 -11.348300 -6.676900
C 5.468400 -10.136900 -7.021000
H 3.823400 -11.386200 -6.424600
N 6.772500 -10.046500 -7.330500
C 4.702700 -8.914000 -7.114800
C 7.500200 -11.152200 -7.341800
C 6.983400 -12.400100 -7.017700
H 8.536500 -11.047600 -7.624700
H 7.619100 -13.270200 -7.044000
H 5.216800 -13.452200 -6.401700
N 5.267700 -7.811700 -7.437500
H 3.628700 -8.989500 -6.960700
Zn -7.281200 -7.900500 -7.422400
C -7.683500 -12.600200 -6.076800
C -7.560200 -11.538700 -5.194600
C -7.499100 -10.242300 -5.704200
H -7.516600 -11.709000 -4.130700
N -7.544400 -9.990200 -7.022100
C -7.409400 -9.092100 -4.835000
C -7.679200 -11.008500 -7.858100
C -7.751900 -12.329100 -7.436000
H -7.737600 -10.768200 -8.908600
H -7.861100 -13.122200 -8.157700
H -7.732400 -13.616100 -5.717300
N -7.427100 -7.901800 -5.307800
H -7.365000 -9.283700 -3.765400
C -11.905800 -6.765000 -8.418200
C -10.870500 -5.844000 -8.361400
C -9.589500 -6.292200 -8.043800
H -11.050400 -4.800300 -8.565300
N -9.329100 -7.585000 -7.786200
C -8.460100 -5.388900 -7.974900
C -10.321600 -8.457900 -7.837000
C -11.626800 -8.096900 -8.148900
H -10.073900 -9.485600 -7.621100
H -12.403100 -8.844100 -8.179000
H -12.908600 -6.453200 -8.665000
N -7.276900 -5.836300 -7.774700
H -8.657200 -4.328500 -8.118500
C -5.789600 -9.468000 -11.778800
C -5.016300 -9.509900 -10.627600
C -5.527300 -8.957200 -9.455800
H -4.035800 -9.959100 -10.638300
N -6.744500 -8.391500 -9.405700
C -4.759400 -8.918200 -8.227700
C -7.473900 -8.346000 -10.508300
C -7.039400 -8.869400 -11.720300
H -8.443300 -7.878200 -10.427300
H -7.669200 -8.812200 -12.593200
H -5.425600 -9.890800 -12.702300
N -5.201200 -8.271700 -7.218500
H -3.787000 -9.405600 -8.222900
Zn -7.580000 7.223500 -7.242300
C -12.066300 6.362600 -5.525100
C -10.930000 6.419100 -4.733100
C -9.718900 6.784000 -5.317900
H -10.979200 6.187000 -3.681200
N -9.615400 7.069200 -6.626700
C -8.512300 6.934000 -4.534600
C -10.708700 7.036300 -7.372200
C -11.955900 6.689600 -6.868600
H -10.593700 7.300500 -8.412400
H -12.816100 6.680500 -7.518200
H -13.019700 6.080500 -5.106500
N -7.412200 7.279100 -5.089600
H -8.601500 6.808200 -3.457800
C -6.883300 12.006900 -7.875800
C -5.872400 11.061800 -7.983400
C -6.179000 9.723200 -7.752500
H -4.868300 11.356300 -8.244800
N -7.420600 9.323000 -7.427300
C -5.179300 8.673900 -7.854800
C -8.379300 10.227700 -7.319300
C -8.159300 11.583300 -7.534800
H -9.357800 9.860900 -7.048900
H -8.969700 12.287100 -7.436000
H -6.679800 13.051800 -8.051300
N -5.534100 7.454700 -7.741300
H -4.151400 8.967900 -8.055200
C -9.049300 6.259600 -11.814600
C -8.906400 5.296300 -10.828000
C -8.448300 5.683400 -9.569500
H -9.142800 4.263400 -11.029000
N -8.143400 6.960300 -9.282900
C -8.252500 4.722500 -8.506700
C -8.277000 7.873400 -10.231100
C -8.725000 7.573900 -11.511500
H -8.021200 8.887500 -9.966300
H -8.819700 8.354300 -12.249000
H -9.404200 5.994100 -12.798100
N -7.725800 5.081800 -7.396800
H -8.533200 3.692500 -8.710600
&END COORD

! Atom Basis Set
! --------------
&KIND C
  BASIS_SET DZVP-MOLOPT-GTH
  POTENTIAL GTH-PBE-q4
&END KIND
&KIND H
  BASIS_SET DZVP-MOLOPT-GTH
  POTENTIAL GTH-PBE-q1
&END KIND
&KIND N
  BASIS_SET DZVP-MOLOPT-GTH
  POTENTIAL GTH-PBE-q5
&END KIND
&KIND O
  BASIS_SET DZVP-MOLOPT-GTH
  POTENTIAL GTH-PBE-q6
&END KIND
&KIND Zn
  BASIS_SET  DZVP-MOLOPT-SR-GTH
  POTENTIAL  GTH-PBE-q12
&END KIND
&END SUBSYS
&END FORCE_EVAL

! Geometry Optimization
! ---------------------
&MOTION
  &GEO_OPT
    OPTIMIZER BFGS
    MAX_ITER 2000
    MAX_DR  [bohr] 0.003
    &BFGS
    &END
  &END GEO_OPT
&END MOTION

