&GLOBAL
  PROJECT_NAME C_cl1_quad2_12_th1_optc_opt
  RUN_TYPE GEO_OPT
  EXTENDED_FFT_LENGTHS
&END GLOBAL

! Force Evaluation
! ----------------
&FORCE_EVAL
  METHOD QS
  &DFT
    BASIS_SET_FILE_NAME BASIS_MOLOPT
    POTENTIAL_FILE_NAME GTH_POTENTIALS
    CHARGE 16
    &QS
      EPS_DEFAULT 1.0E-10
    &END QS
    &MGRID
      NGRIDS 5
     CUTOFF 700
     REL_CUTOFF 60
    &END MGRID
    &SCF
      SCF_GUESS ATOMIC
      EPS_SCF 5.0E-7
      MAX_SCF 300
      &OT
        PRECONDITIONER FULL_SINGLE_INVERSE
        MINIMIZER DIIS
      &END OT
      &OUTER_SCF ! Repeat the inner SCF cycle 10 times
        MAX_SCF 10
        EPS_SCF 5.0E-7 ! Must match the above
      &END
      &PRINT
        &RESTART ON
        FILENAME C_cl1_quad2_12_th1_optc_opt.res
      &END
      &END
    &END SCF

    ! Exchange-Correlation
    ! -------------------
    &XC
      &VDW_POTENTIAL
        POTENTIAL_TYPE PAIR_POTENTIAL
        &PAIR_POTENTIAL
          TYPE DFTD3
          CALCULATE_C9_TERM .TRUE.
          PARAMETER_FILE_NAME dftd3.dat
          REFERENCE_FUNCTIONAL PBE
          R_CUTOFF 10.
          EPS_CN 0.01
        &END PAIR_POTENTIAL
      &END VDW_POTENTIAL
      &XC_FUNCTIONAL PBE
      &END XC_FUNCTIONAL
    &END XC
  &END DFT
  &PRINT
    &FORCES ON
    &END FORCES
  &END PRINT

&SUBSYS
! Cell
! ----
&CELL
  ABC 55.33 55.33 55.33
  ALPHA_BETA_GAMMA 90.0 90.0 90.0
  PERIODIC NONE
&END CELL

! Coordinates
! -----------
&COORD
C -5.627400 4.974200 7.871700
C -4.441600 5.360400 8.495000
C -3.315300 4.557900 8.402200
C -3.349500 3.378300 7.665100
C -2.388600 2.262500 7.787200
C -2.980900 1.096000 8.215700
C -2.290800 -0.120500 8.170800
C -3.012000 -1.306300 8.340500
C -2.473700 -2.526100 7.987900
C -3.476700 -3.602900 7.904000
C -3.392800 -4.877500 8.458700
C -4.514900 -5.690200 8.537300
C -5.753900 -5.217400 8.109100
C -5.824400 -3.978700 7.466100
C -4.693900 -3.215400 7.325700
C -1.103400 -2.584300 7.687100
C -0.318800 -1.438300 7.638900
C 1.116000 -1.473200 7.378700
C 1.869300 -2.631200 7.520500
C 3.254500 -2.643500 7.287300
C 4.172600 -3.741100 7.630800
C 5.369600 -3.351600 8.244500
C 6.371600 -4.253100 8.499300
C 6.213200 -5.602700 8.158400
C 5.001300 -6.010300 7.595800
C 3.994100 -5.094300 7.345800
C 3.849000 -1.497800 6.801200
C 3.145600 -0.287800 6.739800
C 3.861300 0.896600 6.517700
C 3.275800 2.128400 6.715500
C 4.194400 3.274200 6.784900
C 5.357300 3.268500 6.005400
C 6.431700 4.062900 6.334000
C 6.338300 4.954500 7.404700
C 5.117800 5.111800 8.058500
C 4.068900 4.258600 7.767000
C 1.903200 2.175800 7.012400
C 1.137300 1.027800 7.152800
C -0.283600 1.070900 7.482500
C -1.026800 2.245900 7.457900
C -0.934000 -0.160700 7.774900
C 1.769800 -0.245800 7.072700
C -4.493400 3.096700 6.908000
C -5.626400 3.866400 7.019800
H -4.439000 6.233100 9.128400
H -2.432700 4.818100 8.965600
H -4.015500 1.090700 8.522900
H -4.033200 -1.235800 8.680900
H -2.463900 -5.220300 8.887600
H -4.458200 -6.653100 9.020400
H -6.767100 -3.638500 7.069000
H -4.755400 -2.280100 6.793700
H -0.671100 -3.543000 7.450900
H 1.404200 -3.532500 7.885800
H 5.515400 -2.320300 8.524200
H 7.311000 -3.904900 8.899500
H 4.857600 -7.055000 7.371800
H 3.072400 -5.429600 6.898800
H 4.892700 -1.498300 6.530100
H 4.916600 0.814000 6.314700
H 5.433300 2.605000 5.159400
H 7.349700 4.015300 5.770000
H 5.036200 5.831500 8.857700
H 3.169700 4.316600 8.360000
H 1.450500 3.143900 7.149700
H -0.574500 3.170500 7.138600
H -4.498200 2.230200 6.266200
H -6.516800 3.630600 6.458000
C 8.364800 5.953500 -5.495400
C 9.652000 5.523200 -5.167400
C 9.819200 4.417800 -4.358400
C 8.716200 3.721700 -3.861500
C 8.841500 2.861600 -2.671200
C 9.336200 3.518300 -1.568200
C 9.171500 2.974600 -0.287100
C 9.350500 3.800600 0.830900
C 8.983200 3.373100 2.085100
C 8.926800 4.405100 3.133200
C 9.583100 4.323600 4.357200
C 9.541300 5.384400 5.245200
C 8.840200 6.546500 4.923900
C 8.177200 6.631500 3.699000
C 8.214800 5.568100 2.826500
C 8.588700 2.039400 2.263100
C 8.456900 1.172400 1.189400
C 8.029200 -0.211100 1.354300
C 8.058300 -0.854400 2.582700
C 7.599000 -2.170900 2.734200
C 7.830500 -3.036800 3.900500
C 9.129900 -3.195200 4.390600
C 9.483600 -4.344000 5.065800
C 8.525900 -5.336500 5.310600
C 7.180000 -5.055800 5.054400
C 6.845400 -3.932900 4.329000
C 7.075900 -2.825700 1.639500
C 7.157900 -2.259300 0.358600
C 6.894500 -3.060500 -0.761600
C 7.178100 -2.618800 -2.036500
C 7.183700 -3.637100 -3.097800
C 6.316200 -4.733200 -3.015300
C 6.564800 -5.887300 -3.723700
C 7.647500 -5.944800 -4.603600
C 8.395400 -4.793500 -4.843600
C 8.180200 -3.663900 -4.075900
C 7.614300 -1.292500 -2.203900
C 7.818900 -0.441400 -1.128500
C 8.293600 0.929400 -1.294800
C 8.325000 1.567100 -2.526800
C 8.657400 1.663200 -0.130700
C 7.652600 -0.941800 0.193500
C 7.440100 4.089100 -4.287400
C 7.264700 5.197800 -5.088600
H 10.511500 6.063000 -5.536800
H 10.815900 4.115800 -4.072500
H 9.740500 4.515000 -1.662100
H 9.718500 4.804400 0.681800
H 10.159900 3.445400 4.603400
H 10.104500 5.343900 6.163000
H 7.609900 7.518200 3.464000
H 7.687900 5.630200 1.887900
H 8.333700 1.714900 3.258500
H 8.458600 -0.351100 3.447700
H 9.888200 -2.464300 4.154100
H 10.504900 -4.490800 5.384300
H 6.432700 -5.784700 5.324100
H 5.818600 -3.769800 4.042800
H 6.715200 -3.837000 1.735600
H 6.576500 -4.075300 -0.588400
H 5.460800 -4.693700 -2.360600
H 5.928300 -6.752000 -3.618200
H 9.204100 -4.828200 -5.556300
H 8.842500 -2.820800 -4.195300
H 7.814500 -0.947900 -3.205100
H 7.942700 1.077400 -3.407500
H 6.581900 3.551200 -3.917100
H 6.274900 5.568900 -5.296600
C 4.652300 7.320000 -6.144700
C 4.944200 8.144600 -5.056900
C 4.217300 8.029500 -3.884300
C 3.231600 7.051000 -3.744500
C 2.185900 7.108500 -2.711100
C 0.914800 6.835000 -3.169800
C -0.212700 7.102600 -2.387000
C -1.482100 7.012900 -2.974600
C -2.589800 7.529700 -2.339700
C -3.744400 7.702600 -3.237000
C -4.210300 8.983700 -3.539600
C -4.877500 9.222000 -4.724500
C -5.132700 8.166400 -5.605800
C -4.861300 6.858600 -5.198900
C -4.155800 6.633900 -4.038300
C -2.461300 7.988500 -1.022800
C -1.242300 7.954900 -0.359600
C -1.105100 8.368400 1.027800
C -2.196300 8.476000 1.873200
C -2.065800 8.952100 3.185100
C -3.148500 8.925300 4.178900
C -3.392400 10.034800 4.990900
C -4.207100 9.932600 6.097200
C -4.796900 8.705100 6.418000
C -4.639800 7.620900 5.552300
C -3.821600 7.732100 4.447000
C -0.826300 9.348900 3.631000
C 0.319300 9.116300 2.852500
C 1.586500 9.287900 3.424700
C 2.717800 8.829200 2.785900
C 3.911400 8.799100 3.649500
C 4.227000 9.934800 4.403500
C 5.014700 9.839100 5.528400
C 5.528800 8.596500 5.915000
C 5.373200 7.501000 5.064000
C 4.562000 7.601600 3.948700
C 2.607800 8.313000 1.485900
C 1.387000 8.246800 0.827400
C 1.250500 7.767200 -0.548500
C 2.338500 7.559500 -1.387000
C -0.064900 7.592900 -1.067800
C 0.202500 8.591300 1.541000
C 3.091000 6.111700 -4.775800
C 3.743700 6.270600 -5.974800
H 5.670100 8.933200 -5.175200
H 4.378800 8.748100 -3.096000
H 0.749700 6.520800 -4.186800
H -1.558400 6.645200 -3.985500
H -3.967000 9.812100 -2.891600
H -5.180900 10.225700 -4.983100
H -5.094600 6.048700 -5.867800
H -3.864700 5.630000 -3.773800
H -3.334000 8.387600 -0.531700
H -3.178200 8.193200 1.530700
H -2.927600 10.981200 4.758400
H -4.402800 10.802600 6.706400
H -5.102900 6.680300 5.806400
H -3.654000 6.874400 3.815000
H -0.704100 9.741300 4.629200
H 1.650100 9.689500 4.424700
H 3.808900 10.891800 4.129100
H 5.230000 10.718000 6.118300
H 5.805900 6.554900 5.346600
H 4.368800 6.725700 3.350300
H 3.507200 7.965600 1.004100
H 3.336100 7.763000 -1.033300
H 2.430900 5.269600 -4.646000
H 3.575100 5.581000 -6.785800
C -7.812700 6.315800 4.912900
C -7.110300 6.397000 3.707500
C -7.139100 5.345400 2.820000
C -7.882700 4.191600 3.087400
C -8.039100 3.210600 1.999800
C -8.382900 3.719300 0.768200
C -8.445000 2.893700 -0.364000
C -8.705100 3.462300 -1.617400
C -8.580100 2.721300 -2.772100
C -8.671300 3.524000 -4.001800
C -7.617900 3.616700 -4.911800
C -7.532900 4.691800 -5.774900
C -8.483300 5.715200 -5.729700
C -9.652600 5.499500 -4.982600
C -9.738100 4.420700 -4.135100
C -8.263500 1.358400 -2.677500
C -8.104900 0.730300 -1.450000
C -7.798900 -0.693400 -1.331500
C -7.877100 -1.573300 -2.401500
C -7.545200 -2.935000 -2.274500
C -7.832400 -3.941900 -3.306400
C -8.245600 -5.204000 -2.860500
C -8.543800 -6.217100 -3.737500
C -8.460900 -6.005600 -5.119500
C -8.050900 -4.749900 -5.576000
C -7.747500 -3.736400 -4.685100
C -7.037600 -3.377300 -1.069300
C -7.085700 -2.561700 0.069800
C -6.915100 -3.145700 1.335400
C -7.317200 -2.472200 2.468100
C -7.514600 -3.329000 3.650700
C -6.492300 -4.160400 4.109000
C -6.769400 -5.221400 4.945600
C -8.094800 -5.523600 5.269500
C -9.103700 -4.618400 4.925500
C -8.805200 -3.514800 4.152000
C -7.665200 -1.118600 2.371800
C -7.667500 -0.456100 1.153200
C -7.916700 0.974600 1.036800
C -7.840700 1.827600 2.128200
C -8.164200 1.508600 -0.258100
C -7.495000 -1.209700 -0.040100
C -8.526100 4.088900 4.318200
C -8.489900 5.136000 5.222800
H -6.530400 7.280400 3.491500
H -6.591500 5.416500 1.893800
H -8.595100 4.770900 0.650600
H -8.931000 4.516300 -1.669700
H -6.824000 2.887900 -4.884000
H -6.686700 4.793000 -6.432400
H -10.486100 6.180400 -5.067500
H -10.625300 4.287600 -3.534200
H -8.158200 0.800900 -3.593500
H -8.259200 -1.233000 -3.349900
H -8.356800 -5.391500 -1.804900
H -8.796100 -7.193800 -3.355300
H -8.005300 -4.575300 -6.638700
H -7.431300 -2.778500 -5.065800
H -6.675300 -4.386600 -0.960500
H -6.614100 -4.179600 1.397700
H -5.479100 -3.989500 3.782900
H -5.986300 -5.883900 5.274100
H -10.116300 -4.789000 5.259700
H -9.596200 -2.839000 3.863800
H -7.947100 -0.598800 3.273000
H -7.575600 1.441400 3.098700
H -9.105800 3.208800 4.550400
H -9.056500 5.078500 6.137700
C -5.826500 -5.150100 -8.368300
C -4.624000 -5.749900 -7.988000
C -3.517900 -4.978800 -7.667100
C -3.582800 -3.586500 -7.696200
C -2.506100 -2.621800 -7.420100
C -2.890700 -1.441700 -6.810700
C -2.166200 -0.263900 -7.041100
C -2.834000 0.963700 -6.913400
C -2.377500 2.075500 -7.593200
C -3.364100 3.121100 -7.909100
C -3.148900 4.498600 -7.917600
C -4.167400 5.373400 -8.259100
C -5.422900 4.889000 -8.634700
C -5.640200 3.506100 -8.641500
C -4.629800 2.649500 -8.281400
C -1.079100 2.048600 -8.131100
C -0.317500 0.889300 -8.127900
C 1.026600 0.831200 -8.685400
C 1.796700 1.966800 -8.867700
C 3.076500 1.901400 -9.435900
C 4.024500 3.029700 -9.412200
C 4.654700 3.515500 -10.555700
C 5.700500 4.412900 -10.456300
C 6.139200 4.838000 -9.199200
C 5.484800 4.382800 -8.056100
C 4.438900 3.492200 -8.162800
C 3.571400 0.688900 -9.853800
C 2.885400 -0.497900 -9.543400
C 3.545200 -1.729400 -9.667300
C 3.027400 -2.867000 -9.086100
C 3.992400 -3.964200 -8.913400
C 4.266300 -4.462300 -7.637900
C 5.410700 -5.197700 -7.398900
C 6.318100 -5.433500 -8.433300
C 5.985000 -5.050400 -9.736800
C 4.830500 -4.335800 -9.969300
C 1.731000 -2.829800 -8.547400
C 0.988000 -1.660600 -8.533700
C -0.372200 -1.603100 -8.009300
C -1.201400 -2.713600 -7.939100
C -0.915500 -0.325600 -7.699500
C 1.604300 -0.443000 -8.939100
C -4.795800 -2.998100 -8.080600
C -5.893100 -3.751700 -8.405300
H -4.555600 -6.825700 -7.982900
H -2.601500 -5.469500 -7.379600
H -3.831000 -1.379500 -6.286500
H -3.782500 0.987100 -6.400700
H -2.185500 4.894200 -7.638300
H -3.996200 6.438600 -8.271900
H -6.618600 3.118000 -8.878300
H -4.815900 1.588500 -8.312400
H -0.711000 2.930700 -8.629600
H 1.425000 2.929600 -8.556800
H 4.333500 3.179800 -11.530300
H 6.166900 4.799600 -11.350300
H 5.869000 4.681100 -7.096200
H 3.966900 3.101900 -7.274500
H 4.549400 0.625400 -10.307300
H 4.531200 -1.742000 -10.107000
H 3.611900 -4.212100 -6.818300
H 5.664000 -5.518100 -6.400900
H 6.631600 -5.319500 -10.559300
H 4.591000 -4.030300 -10.977000
H 1.320700 -3.734100 -8.127000
H -0.877100 -3.650700 -8.363200
H -4.870500 -1.925300 -8.151700
H -6.824600 -3.263000 -8.647100
C 5.542600 -8.548800 5.133600
C 4.176800 -8.751900 5.366500
C 3.248900 -8.324700 4.451500
C 3.633400 -7.694300 3.261800
C 2.507800 -7.308000 2.394100
C 1.405000 -6.768900 3.026500
C 0.136800 -6.862800 2.436600
C -0.995000 -6.751700 3.258600
C -2.193100 -7.318500 2.870100
C -3.185300 -7.638300 3.902400
C -4.556900 -7.770700 3.675100
C -5.418600 -8.120400 4.698300
C -4.931900 -8.358700 5.986100
C -3.556100 -8.253600 6.215900
C -2.709700 -7.905600 5.193300
C -2.343100 -7.698900 1.523100
C -1.292700 -7.635400 0.622300
C -1.440900 -7.976800 -0.786000
C -2.683800 -8.064400 -1.398000
C -2.807400 -8.431100 -2.741400
C -4.045200 -8.505600 -3.546400
C -4.449300 -9.745800 -4.045000
C -5.271400 -9.823900 -5.146900
C -5.702400 -8.649500 -5.776400
C -5.461500 -7.417700 -5.162700
C -4.631900 -7.349400 -4.060200
C -1.675000 -8.695900 -3.476700
C -0.399400 -8.508900 -2.926200
C 0.730900 -8.600400 -3.750200
C 1.985200 -8.318900 -3.260600
C 3.094300 -8.322800 -4.223800
C 2.893100 -7.713300 -5.465300
C 3.846000 -7.783700 -6.455700
C 5.053500 -8.441900 -6.214600
C 5.275500 -9.027500 -4.967900
C 4.304400 -8.970600 -3.985700
C 2.135800 -8.022400 -1.896900
C 1.048600 -7.955200 -1.041800
C 1.190300 -7.613000 0.368300
C 2.405600 -7.655500 1.037600
C 0.009800 -7.341100 1.110800
C -0.262400 -8.151900 -1.561900
C 4.994500 -7.524400 3.018100
C 5.939800 -7.928600 3.948600
H 3.851900 -9.202200 6.292600
H 2.203900 -8.502500 4.648900
H 1.482400 -6.401100 4.037000
H -0.874600 -6.325400 4.241000
H -4.963000 -7.584200 2.694100
H -6.473600 -8.245400 4.509400
H -3.165900 -8.402900 7.210300
H -1.653200 -7.865900 5.399300
H -3.288100 -8.109900 1.209200
H -3.582200 -7.852100 -0.842300
H -4.067800 -10.652400 -3.599600
H -5.566100 -10.787300 -5.535600
H -5.837200 -6.519400 -5.627000
H -4.371300 -6.388900 -3.645400
H -1.757100 -8.990600 -4.512000
H 0.595300 -8.884800 -4.782200
H 1.974900 -7.179900 -5.650200
H 3.686700 -7.301300 -7.406900
H 6.181400 -9.586500 -4.802300
H 4.471500 -9.469400 -3.043600
H 3.125400 -7.801200 -1.532500
H 3.283100 -8.037700 0.542200
H 5.321700 -7.057400 2.103100
H 6.992900 -7.801100 3.753300
Zn 7.981700 7.664100 7.786700
C 11.896700 5.477400 9.641000
C 10.763000 4.811200 9.199300
C 9.706100 5.557000 8.681100
H 10.697500 3.736400 9.257900
N 9.753800 6.896900 8.596500
C 8.487300 4.932400 8.205300
C 10.838100 7.527400 9.016600
C 11.936500 6.860900 9.546500
H 10.835700 8.603000 8.927600
H 12.800000 7.416700 9.874000
H 12.733100 4.932000 10.049200
N 7.478900 5.638500 7.857100
H 8.457400 3.844700 8.182100
C 5.771200 9.000100 11.902400
C 5.272600 9.232200 10.629900
C 5.989300 8.763000 9.529300
H 4.346500 9.766700 10.489100
N 7.145800 8.094200 9.665600
C 5.502900 8.943000 8.180300
C 7.613600 7.870400 10.883500
C 6.963500 8.302400 12.032600
H 8.543900 7.327500 10.951200
H 7.385500 8.099000 13.003200
H 5.243700 9.354000 12.774400
N 6.098700 8.408600 7.178500
H 4.582500 9.510100 8.059700
C 9.362600 12.246000 6.783200
C 9.360400 11.207800 5.864400
C 9.014000 9.928700 6.295300
H 9.627500 11.383100 4.834400
N 8.669000 9.672400 7.566800
C 9.043300 8.793700 5.398400
C 8.688400 10.665000 8.442100
C 9.028600 11.967600 8.100500
H 8.426100 10.417600 9.459700
H 9.030900 12.741800 8.850600
H 9.625100 13.248400 6.482900
N 8.795600 7.615500 5.827200
H 9.332200 8.982700 4.366500
Zn -7.620300 -7.770500 7.583000
C -11.482300 -5.717200 9.821600
C -10.242000 -5.119300 9.666000
C -9.233700 -5.820900 9.005800
H -10.053600 -4.131400 10.054900
N -9.428100 -7.050500 8.506000
C -7.917600 -5.252900 8.827700
C -10.613100 -7.619000 8.666800
C -11.670600 -6.995000 9.314600
H -10.730200 -8.615800 8.271300
H -12.616100 -7.502100 9.417900
H -12.284500 -5.204200 10.328700
N -6.947500 -5.922300 8.325200
H -7.783100 -4.224100 9.156500
C -6.510700 -10.790800 11.251300
C -5.777600 -10.663500 10.082500
C -6.164000 -9.704200 9.145700
H -4.923800 -11.295900 9.896300
N -7.224400 -8.902600 9.338900
C -5.416200 -9.499300 7.927700
C -7.911300 -9.022100 10.463000
C -7.595400 -9.948200 11.448700
H -8.748800 -8.355300 10.593900
H -8.186500 -10.005400 12.348200
H -6.241800 -11.524900 11.994600
N -5.790600 -8.646200 7.044000
H -4.514000 -10.094300 7.804000
C -10.731200 -10.909300 5.554100
C -10.582700 -9.589300 5.158600
C -9.583400 -8.817200 5.750100
H -11.228600 -9.162500 4.407700
N -8.763400 -9.312000 6.691800
C -9.340700 -7.453800 5.337800
C -8.900700 -10.577500 7.053300
C -9.867500 -11.416500 6.514500
H -8.216900 -10.944600 7.803200
H -9.942000 -12.439900 6.844400
H -11.499200 -11.532000 5.122500
N -8.360300 -6.782700 5.819300
H -9.978100 -7.054000 4.552000
Zn 8.041200 -7.805700 -7.170600
C 9.532000 -11.655300 -4.617300
C 9.126800 -10.453100 -4.056000
C 8.721200 -9.421900 -4.900600
H 9.126900 -10.316300 -2.986300
N 8.710600 -9.557700 -6.237300
C 8.294100 -8.134000 -4.389100
C 9.096800 -10.706000 -6.767700
C 9.515700 -11.785300 -5.998200
H 9.070800 -10.773600 -7.844500
H 9.819600 -12.703100 -6.474900
H 9.852200 -12.475900 -3.994500
N 8.033800 -7.164800 -5.183200
H 8.233400 -8.017100 -3.308500
C 12.314200 -5.892500 -8.477000
C 11.079500 -5.377800 -8.841000
C 9.924600 -5.990700 -8.356000
H 11.009200 -4.518100 -9.488500
N 9.974000 -7.063200 -7.549000
C 8.608000 -5.482800 -8.669800
C 11.155900 -7.544000 -7.197100
C 12.354200 -6.993800 -7.633700
H 11.151200 -8.403400 -6.544000
H 13.293600 -7.421900 -7.323900
H 13.226000 -5.445100 -8.841000
N 7.562800 -5.985400 -8.124400
H 8.550800 -4.632700 -9.345600
C 7.309000 -9.519400 -11.688100
C 6.317000 -9.387500 -10.729100
C 6.668700 -8.955100 -9.451500
H 5.290200 -9.619500 -10.963300
N 7.934300 -8.651300 -9.124600
C 5.689600 -8.847200 -8.392900
C 8.879000 -8.795400 -10.040300
C 8.618100 -9.225500 -11.334500
H 9.888200 -8.564400 -9.734600
H 9.422800 -9.327800 -12.044500
H 7.071200 -9.849800 -12.687200
N 6.037400 -8.518100 -7.206900
H 4.662800 -9.108000 -8.640400
Zn -7.144000 7.559500 -8.065000
C -4.683100 10.466600 -11.131600
C -4.449800 10.387900 -9.767800
C -5.162700 9.455000 -9.015100
H -3.730900 11.036000 -9.292300
N -6.065500 8.629900 -9.570200
C -4.929300 9.291600 -7.599300
C -6.273100 8.702200 -10.874800
C -5.609100 9.602400 -11.698000
H -6.998100 8.018400 -11.288400
H -5.818000 9.625500 -12.755200
H -4.154500 11.182200 -11.741800
N -5.509000 8.357900 -6.938000
H -4.193500 9.946100 -7.137800
C -9.028100 11.671200 -6.205100
C -9.085200 10.423900 -5.606800
C -8.593900 9.316900 -6.301200
H -9.507800 10.303900 -4.622000
N -8.048800 9.428200 -7.522000
C -8.691100 7.990400 -5.745600
C -8.021600 10.620200 -8.098100
C -8.497800 11.769600 -7.484100
H -7.614000 10.665000 -9.095700
H -8.455900 12.715600 -7.999000
H -9.398900 12.546900 -5.695600
N -8.232100 6.945200 -6.338700
H -9.195800 7.918700 -4.784900
C -10.523900 6.480600 -11.388400
C -9.353900 5.762700 -11.196900
C -8.497300 6.136500 -10.161200
H -9.107700 4.931100 -11.838300
N -8.768200 7.170600 -9.349600
C -7.279500 5.407400 -9.891000
C -9.890700 7.844900 -9.531700
C -10.801300 7.538900 -10.535200
H -10.078800 8.663500 -8.854600
H -11.703800 8.118000 -10.644100
H -11.206800 6.221000 -12.182300
N -6.481200 5.747900 -8.945800
H -7.080100 4.546400 -10.525500
Zn 8.113200 -8.006800 7.081500
C 11.457800 -7.189900 10.572900
C 10.179900 -6.656900 10.546200
C 9.379800 -6.872000 9.421900
H 9.803200 -6.086500 11.380700
N 9.806700 -7.580900 8.364200
C 8.069600 -6.277700 9.323400
C 11.033000 -8.077900 8.396100
C 11.896300 -7.909000 9.469900
H 11.355400 -8.635600 7.531600
H 12.886800 -8.333000 9.441100
H 12.098900 -7.045600 11.428400
N 7.298300 -6.465900 8.313400
H 7.790000 -5.611800 10.137100
C 7.194800 -12.101600 9.655400
C 6.594200 -11.757200 8.455800
C 6.863600 -10.505100 7.900200
H 5.930100 -12.444300 7.955400
N 7.689000 -9.620700 8.482800
C 6.207300 -10.082100 6.687000
C 8.243900 -9.953800 9.636700
C 8.029500 -11.175100 10.262700
H 8.886200 -9.224300 10.102400
H 8.507500 -11.390300 11.204400
H 7.013000 -13.062500 10.110500
N 6.438800 -8.948000 6.132400
H 5.464100 -10.767800 6.283500
C 11.545400 -10.468500 4.600900
C 11.297400 -9.110900 4.482900
C 10.227200 -8.555200 5.186000
H 11.920800 -8.488100 3.860900
N 9.426300 -9.295800 5.970300
C 9.896000 -7.157100 5.055700
C 9.663900 -10.594000 6.067900
C 10.708200 -11.226900 5.407000
H 8.999000 -11.164300 6.697100
H 10.859000 -12.287500 5.525100
H 12.369000 -10.928100 4.077300
N 8.866200 -6.651500 5.633000
H 10.515000 -6.570700 4.379900
Zn -7.404200 7.624300 7.862400
C -11.436100 5.396400 9.371300
C -10.216900 4.764500 9.174300
C -9.140500 5.515100 8.705000
H -10.100500 3.713200 9.384600
N -9.250700 6.826500 8.434800
C -7.838900 4.922800 8.470600
C -10.416600 7.423300 8.618900
C -11.539400 6.749900 9.085800
H -10.461300 8.475800 8.385000
H -12.469600 7.277600 9.219900
H -12.289400 4.846800 9.736700
N -6.833200 5.641000 8.134100
H -7.751100 3.846100 8.603600
C -6.036600 9.195700 12.286900
C -5.335400 9.435000 11.115600
C -5.811500 8.893100 9.922000
H -4.436500 10.030900 11.123300
N -6.928600 8.149600 9.871100
C -5.108900 9.085500 8.674200
C -7.587000 7.917000 10.995300
C -7.182300 8.415600 12.226900
H -8.477100 7.312000 10.918700
H -7.755000 8.200800 13.114300
H -5.697600 9.605100 13.225600
N -5.508700 8.511900 7.600000
H -4.212000 9.699500 8.701100
C -8.723000 12.072700 6.390000
C -8.541600 10.989700 5.544300
C -8.250200 9.743900 6.097600
H -8.627400 11.105700 4.475700
N -8.128800 9.564000 7.422000
C -8.111700 8.565100 5.271600
C -8.320900 10.598200 8.225400
C -8.620800 11.871200 7.759000
H -8.237100 10.408800 9.284800
H -8.770000 12.681400 8.454100
H -8.948300 13.051000 5.995100
N -7.879000 7.414500 5.782600
H -8.272800 8.695200 4.203200
Zn 7.254700 7.599900 -8.003100
C 8.544800 11.918900 -6.225400
C 8.901700 10.700900 -5.665400
C 8.416900 9.528500 -6.243400
H 9.542200 10.657800 -4.798800
N 7.616100 9.546200 -7.322500
C 8.706200 8.224300 -5.683500
C 7.272000 10.710300 -7.847700
C 7.710300 11.924900 -7.333800
H 6.623500 10.674600 -8.709600
H 7.407800 12.850800 -7.795100
H 8.908500 12.843900 -5.805800
N 8.128100 7.175600 -6.136100
H 9.376900 8.185200 -4.827700
C 11.618000 7.085900 -10.258900
C 10.572200 6.183200 -10.362100
C 9.387000 6.440000 -9.673500
H 10.669000 5.294100 -10.964900
N 9.222700 7.532500 -8.911600
C 8.264500 5.534800 -9.759800
C 10.226300 8.391500 -8.822200
C 11.440200 8.214900 -9.472500
H 10.066200 9.266800 -8.212300
H 12.223100 8.948300 -9.368000
H 12.547400 6.917300 -10.780100
N 7.224200 5.702000 -9.035600
H 8.353400 4.704600 -10.456800
C 4.706400 8.408200 -12.058000
C 4.151400 8.029400 -10.845600
C 4.979200 7.931900 -9.728900
H 3.098100 7.813800 -10.764300
N 6.296800 8.185100 -9.795400
C 4.461700 7.604300 -8.418900
C 6.818300 8.562700 -10.951300
C 6.064200 8.688900 -12.110900
H 7.876700 8.774700 -10.955800
H 6.534800 9.000200 -13.029400
H 4.097400 8.490200 -12.944700
N 5.233300 7.569100 -7.396200
H 3.387800 7.453400 -8.330300
Zn -7.892900 -7.632500 -7.867400
C -11.083000 -11.167000 -6.713500
C -10.903900 -9.991500 -6.003600
C -9.899800 -9.106500 -6.401400
H -11.531100 -9.759100 -5.157400
N -9.102000 -9.357600 -7.451600
C -9.658700 -7.886100 -5.670900
C -9.278700 -10.484500 -8.122000
C -10.249800 -11.420600 -7.793800
H -8.623500 -10.659900 -8.960300
H -10.349800 -12.323700 -8.373500
H -11.851700 -11.870300 -6.433900
N -8.742400 -7.048900 -6.002600
H -10.293400 -7.722500 -4.802800
C -11.170800 -5.819100 -10.987100
C -9.867100 -5.370500 -10.852800
C -9.071400 -5.902700 -9.836400
H -9.469800 -4.623500 -11.521800
N -9.525700 -6.839500 -8.987900
C -7.728900 -5.422100 -9.614700
C -10.776100 -7.252600 -9.115900
C -11.637400 -6.773300 -10.094100
H -11.119900 -7.993500 -8.411600
H -12.648400 -7.142200 -10.152800
H -11.811500 -5.432100 -11.763900
N -6.984500 -5.873400 -8.668400
H -7.393400 -4.620600 -10.269500
C -6.068000 -10.393000 -11.513200
C -5.627100 -10.409100 -10.200000
C -6.208200 -9.534200 -9.281300
H -4.850400 -11.089400 -9.888100
N -7.174800 -8.669700 -9.628700
C -5.771100 -9.504300 -7.906200
C -7.586100 -8.658500 -10.886200
C -7.067900 -9.497700 -11.863900
H -8.365900 -7.957100 -11.136900
H -7.443700 -9.449900 -12.872900
H -5.644400 -11.060900 -12.246800
N -6.246100 -8.662300 -7.062600
H -4.978500 -10.198700 -7.635400
&END COORD

! Atom Basis Set
! --------------
&KIND C
  BASIS_SET DZVP-MOLOPT-GTH
  POTENTIAL GTH-PBE-q4
&END KIND
&KIND H
  BASIS_SET DZVP-MOLOPT-GTH
  POTENTIAL GTH-PBE-q1
&END KIND
&KIND N
  BASIS_SET DZVP-MOLOPT-GTH
  POTENTIAL GTH-PBE-q5
&END KIND
&KIND O
  BASIS_SET DZVP-MOLOPT-GTH
  POTENTIAL GTH-PBE-q6
&END KIND
&KIND Zn
  BASIS_SET  DZVP-MOLOPT-SR-GTH
  POTENTIAL  GTH-PBE-q12
&END KIND
&END SUBSYS
&END FORCE_EVAL

! Geometry Optimization
! ---------------------
&MOTION
  &GEO_OPT
    OPTIMIZER BFGS
    MAX_ITER 2000
    MAX_DR  [bohr] 0.003
    &BFGS
    &END
  &END GEO_OPT
&END MOTION

