%chk=trans_l1_la_FINAL.chk
%nprocshared=48
%mem=120GB
# SP PBE1PBE/def2svp empiricaldispersion=GD3BJ scrf=(solvent=dmso)

trans_l1_la

4 1
 Pd                -6.89730000    0.08160000    0.04930000
 Pd                 8.15830000   -0.08970000    0.10470000
 C                 -4.49080000    1.67410000   -0.23790000
 N                 -5.41880000    1.34040000    0.67620000
 C                 -5.39080000    1.93800000    1.87660000
 C                 -4.44150000    2.89160000    2.20150000
 C                 -3.45320000    3.23850000    1.27000000
 C                 -2.38580000    4.19440000    1.61110000
 C                 -2.68870000    5.38600000    2.30190000
 C                 -1.69400000    6.27050000    2.70620000
 C                 -0.38490000    5.90800000    2.42430000
 O                  0.72630000    6.59800000    2.79840000
 C                  1.79760000    5.88100000    2.36820000
 C                  3.12780000    6.21340000    2.57760000
 C                  4.07640000    5.31740000    2.10110000
 C                  3.71360000    4.13830000    1.41390000
 C                  4.75790000    3.19480000    0.98540000
 C                  4.66780000    2.44390000   -0.19620000
 C                  5.67130000    1.54640000   -0.52970000
 N                  6.73920000    1.35890000    0.25870000
 C                  6.84450000    2.06650000    1.39900000
 C                  5.89400000    2.98910000    1.78260000
 C                  2.36370000    3.84470000    1.18830000
 C                  1.39860000    4.71700000    1.68530000
 C                 -0.04870000    4.73370000    1.72580000
 C                 -1.05930000    3.87690000    1.29780000
 C                 -3.49710000    2.59930000    0.02440000
 H                 -4.55640000    1.18570000   -1.21120000
 H                 -6.14490000    1.63600000    2.60360000
 H                 -4.45490000    3.33340000    3.19870000
 H                 -3.73230000    5.62900000    2.51270000
 H                 -1.92760000    7.19720000    3.23100000
 H                  3.41130000    7.13060000    3.09450000
 H                  5.13390000    5.55060000    2.23910000
 H                  3.82840000    2.57110000   -0.88070000
 H                  5.62690000    0.96410000   -1.45150000
 H                  7.72190000    1.87690000    2.02090000
 H                  6.02630000    3.51650000    2.72730000
 H                  2.07000000    2.92690000    0.67500000
 H                 -0.81900000    2.94720000    0.77850000
 H                 -2.77410000    2.83650000   -0.75620000
 C                 -5.50320000   -1.82890000   -1.81710000
 N                 -5.50140000   -1.25330000   -0.60600000
 C                 -4.57510000   -1.63260000    0.29210000
 C                 -3.60400000   -2.57180000   -0.00270000
 C                 -3.58120000   -3.17670000   -1.26630000
 C                 -2.52050000   -4.12310000   -1.65260000
 C                 -2.82700000   -5.28090000   -2.39810000
 C                 -1.83380000   -6.14090000   -2.85540000
 C                 -0.52240000   -5.78960000   -2.56770000
 O                  0.58760000   -6.45540000   -2.98620000
 C                  1.66030000   -5.75960000   -2.52620000
 C                  2.98980000   -6.07890000   -2.75850000
 C                  3.93890000   -5.20830000   -2.23850000
 C                  3.57800000   -4.06680000   -1.48900000
 C                  4.62620000   -3.15440000   -1.00770000
 C                  5.77570000   -2.93140000   -1.78080000
 C                  6.74380000   -2.05750000   -1.33430000
 N                  6.64170000   -1.41510000   -0.15560000
 C                  5.55430000   -1.60700000    0.60340000
 C                  4.53290000   -2.45780000    0.20670000
 C                  2.22900000   -3.78590000   -1.24480000
 C                  1.26330000   -4.63270000   -1.78220000
 C                 -0.18360000   -4.65170000   -1.81330000
 C                 -1.19220000   -3.81940000   -1.33510000
 C                 -4.57750000   -2.79400000   -2.17490000
 H                 -6.25910000   -1.49610000   -2.52850000
 H                 -4.62200000   -1.16480000    1.27680000
 H                 -2.87660000   -2.84020000    0.76340000
 H                 -3.87170000   -5.51620000   -2.61170000
 H                 -2.07030000   -7.04070000   -3.42390000
 H                  3.27240000   -6.96770000   -3.32320000
 H                  4.99570000   -5.43470000   -2.39090000
 H                  5.90820000   -3.40990000   -2.75100000
 H                  7.63660000   -1.85710000   -1.93080000
 H                  5.51150000   -1.07150000    1.55330000
 H                  3.67780000   -2.59490000    0.86950000
 H                  1.93610000   -2.89680000   -0.68280000
 H                 -0.94810000   -2.91520000   -0.77420000
 H                 -4.61150000   -3.21130000   -3.18210000
 C                 -9.71930000    2.92550000    1.74520000
 C                 -8.90840000    2.31950000    0.81440000
 N                 -8.28250000    1.14510000    1.09050000
 C                 -8.44900000    0.57020000    2.26730000
 C                 -9.21500000    1.13170000    3.30130000
 C                 -9.27000000    0.50070000    4.58530000
 C                 -8.43250000   -0.72570000    4.69790000
 C                 -7.05110000   -0.59330000    4.90230000
 C                 -6.17660000   -1.61380000    4.54430000
 C                 -6.66920000   -2.79920000    3.96790000
 C                 -5.80260000   -3.75850000    3.36750000
 C                 -5.13070000   -4.55370000    2.73150000
 C                 -4.46650000   -5.52100000    1.92140000
 C                 -3.06530000   -5.61680000    1.86480000
 C                 -2.49400000   -6.59280000    1.04740000
 C                 -1.14300000   -7.01570000    0.71970000
 C                  0.14460000   -6.59270000    1.05110000
 C                  1.24120000   -7.27010000    0.49130000
 C                  2.58320000   -6.86240000    0.74380000
 C                  3.75670000   -6.55850000    0.87480000
 C                  5.13370000   -6.21160000    0.97990000
 C                  6.10570000   -6.90970000    0.23630000
 C                  7.45250000   -6.58670000    0.34790000
 C                  7.87450000   -5.54660000    1.18910000
 C                  9.30850000   -5.25020000    1.41090000
 C                 10.17750000   -6.24190000    1.82760000
 C                 11.50120000   -5.94250000    2.22140000
 C                 11.96290000   -4.64520000    2.24410000
 C                 11.12180000   -3.60190000    1.79370000
 C                 11.48720000   -2.23270000    1.80320000
 C                 10.63720000   -1.28830000    1.29350000
 N                  9.45840000   -1.61770000    0.68430000
 C                  9.06740000   -2.88110000    0.72240000
 C                  9.81600000   -3.91520000    1.31820000
 C                  6.90160000   -4.83750000    1.91390000
 C                  5.55680000   -5.16720000    1.82100000
 C                  1.03150000   -8.36840000   -0.37970000
 C                 -0.24280000   -8.79660000   -0.72090000
 C                 -1.30550000   -8.09840000   -0.16620000
 O                 -2.61790000   -8.35550000   -0.40850000
 C                 -3.33260000   -7.45350000    0.31190000
 C                 -4.71750000   -7.37320000    0.33660000
 C                 -5.27260000   -6.39570000    1.14990000
 C                 -8.06420000   -2.98120000    3.89060000
 C                 -8.93130000   -1.95570000    4.24980000
 C                -10.03780000    1.09040000    5.56200000
 C                -10.74550000    2.29140000    5.29260000
 C                -10.67910000    2.91900000    4.06840000
 C                 -9.89440000    2.35260000    3.03300000
 H                -10.21570000    3.86400000    1.49260000
 H                 -8.72840000    2.74840000   -0.17270000
 H                 -7.93180000   -0.37720000    2.42200000
 H                 -6.64980000    0.35740000    5.26190000
 H                 -5.09920000   -1.46990000    4.64540000
 H                 -2.44390000   -4.94330000    2.45780000
 H                  0.30680000   -5.74350000    1.71670000
 H                  5.79160000   -7.71590000   -0.42920000
 H                  8.19110000   -7.14540000   -0.23140000
 H                  9.81660000   -7.26970000    1.90750000
 H                 12.14950000   -6.75560000    2.55520000
 H                 12.96660000   -4.41070000    2.60350000
 H                 12.44140000   -1.91960000    2.23020000
 H                 10.88110000   -0.22860000    1.35090000
 H                  8.11970000   -3.13720000    0.25730000
 H                  7.20850000   -4.03820000    2.59300000
 H                  4.82030000   -4.62140000    2.41270000
 H                  1.90180000   -8.87340000   -0.80200000
 H                 -0.40680000   -9.63050000   -1.40420000
 H                 -5.33550000   -8.05130000   -0.25310000
 H                 -6.35760000   -6.29400000    1.20750000
 H                 -8.46100000   -3.91120000    3.47910000
 H                -10.00550000   -2.07780000    4.09290000
 H                -10.09940000    0.64020000    6.55460000
 H                -11.34930000    2.73220000    6.08890000
 H                -11.21820000    3.85110000    3.88820000
 C                 -9.93080000   -2.56330000   -1.61850000
 C                 -9.08460000   -2.00700000   -0.68750000
 N                 -8.36010000   -0.89430000   -0.97710000
 C                 -8.46880000   -0.32990000   -2.16580000
 C                 -9.26450000   -0.84680000   -3.20000000
 C                 -9.25160000   -0.23720000   -4.49540000
 C                 -8.31810000    0.91700000   -4.62080000
 C                 -6.95140000    0.67490000   -4.82270000
 C                 -5.99970000    1.63280000   -4.48800000
 C                 -6.39740000    2.86530000   -3.93790000
 C                 -5.46000000    3.77740000   -3.36990000
 C                 -4.73690000    4.55430000   -2.76800000
 C                 -4.02700000    5.52480000   -2.00040000
 C                 -2.62310000    5.58950000   -1.97360000
 C                 -2.01340000    6.58780000   -1.21140000
 C                 -0.64700000    7.00080000   -0.93540000
 C                  0.62590000    6.54030000   -1.27540000
 C                  1.74580000    7.22380000   -0.77260000
 C                  3.07560000    6.77340000   -1.01640000
 C                  4.24250000    6.43640000   -1.12230000
 C                  5.61090000    6.04700000   -1.17400000
 C                  6.57660000    6.73820000   -0.41600000
 C                  7.91360000    6.36120000   -0.45560000
 C                  8.32990000    5.27490000   -1.23840000
 C                  9.75620000    4.89220000   -1.35150000
 C                 10.71110000    5.80910000   -1.74980000
 C                 12.04200000    5.41480000   -2.01660000
 C                 12.42900000    4.09630000   -1.92530000
 C                 11.49520000    3.12820000   -1.48950000
 C                 11.77970000    1.74380000   -1.38590000
 C                 10.83620000    0.87880000   -0.89960000
 N                  9.62810000    1.30500000   -0.42330000
 C                  9.31820000    2.58310000   -0.56830000
 C                 10.17510000    3.53890000   -1.14770000
 C                  7.36400000    4.58210000   -1.98840000
 C                  6.02980000    4.96230000   -1.96500000
 C                  1.57540000    8.36720000    0.04760000
 C                  0.31680000    8.83290000    0.39700000
 C                 -0.76980000    8.12710000   -0.09850000
 O                 -2.07130000    8.41900000    0.16220000
 C                 -2.81830000    7.49790000   -0.49800000
 C                 -4.20470000    7.44520000   -0.48810000
 C                 -4.79730000    6.44720000   -1.24760000
 C                 -7.77460000    3.15360000   -3.86010000
 C                 -8.71900000    2.19020000   -4.19550000
 C                -10.04860000   -0.78470000   -5.47330000
 C                -10.85210000   -1.92140000   -5.19330000
 C                -10.85350000   -2.52820000   -3.95690000
 C                -10.04150000   -2.00510000   -2.91980000
 H                -10.50590000   -3.45250000   -1.35480000
 H                 -8.95740000   -2.42700000    0.31150000
 H                 -7.87920000    0.57170000   -2.33120000
 H                 -6.62500000   -0.30960000   -5.16700000
 H                 -4.93700000    1.40460000   -4.58940000
 H                 -2.02900000    4.87800000   -2.54980000
 H                  0.75900000    5.65690000   -1.90170000
 H                  6.26510000    7.57810000    0.20760000
 H                  8.64720000    6.90970000    0.13970000
 H                 10.41980000    6.84920000   -1.91130000
 H                 12.76130000    6.17030000   -2.34050000
 H                 13.44430000    3.78780000   -2.18220000
 H                 12.74740000    1.35470000   -1.70660000
 H                 11.02550000   -0.19280000   -0.87250000
 H                  8.34830000    2.91610000   -0.21170000
 H                  7.67000000    3.74840000   -2.62500000
 H                  5.29820000    4.42230000   -2.56810000
 H                  2.46370000    8.87600000    0.42520000
 H                  0.18210000    9.70120000    1.04270000
 H                 -4.79520000    8.16070000    0.08530000
 H                 -5.88520000    6.36750000   -1.27950000
 H                 -8.09780000    4.12030000   -3.46930000
 H                 -9.78020000    2.39850000   -4.04070000
 H                -10.06020000   -0.35090000   -6.47510000
 H                -11.47660000   -2.32920000   -5.99120000
 H                -11.46680000   -3.41150000   -3.76860000

 1 4 1.0 43 1.0 83 1.0 158 1.0
 2 20 1.0 59 1.0 112 1.0 187 1.0
 3 4 1.5 27 2.0 28 1.0
 4 5 1.5
 5 6 2.0 29 1.0
 6 7 1.5 30 1.0
 7 8 1.0 27 1.5
 8 9 1.5 26 1.5
 9 10 1.5 31 1.0
 10 11 1.5 32 1.0
 11 12 1.0 25 1.5
 12 13 1.0
 13 14 1.5 24 1.5
 14 15 1.5 33 1.0
 15 16 1.5 34 1.0
 16 17 1.0 23 1.5
 17 18 1.5 22 1.5
 18 19 1.5 35 1.0
 19 20 1.5 36 1.0
 20 21 1.5
 21 22 2.0 37 1.0
 22 38 1.0
 23 24 1.5 39 1.0
 24 25 1.0
 25 26 1.5
 26 40 1.0
 27 41 1.0
 28
 29
 30
 31
 32
 33
 34
 35
 36
 37
 38
 39
 40
 41
 42 43 1.5 66 2.0 67 1.0
 43 44 1.5
 44 45 2.0 68 1.0
 45 46 1.5 69 1.0
 46 47 1.0 66 1.5
 47 48 1.5 65 1.5
 48 49 1.5 70 1.0
 49 50 1.5 71 1.0
 50 51 1.0 64 1.5
 51 52 1.0
 52 53 1.5 63 1.5
 53 54 1.5 72 1.0
 54 55 1.5 73 1.0
 55 56 1.0 62 1.5
 56 57 1.5 61 1.5
 57 58 2.0 74 1.0
 58 59 1.5 75 1.0
 59 60 1.5
 60 61 1.5 76 1.0
 61 77 1.0
 62 63 1.5 78 1.0
 63 64 1.5
 64 65 1.5
 65 79 1.0
 66 80 1.0
 67
 68
 69
 70
 71
 72
 73
 74
 75
 76
 77
 78
 79
 80
 81 82 2.0 129 1.5 130 1.0
 82 83 1.5 131 1.0
 83 84 2.0
 84 85 1.5 132 1.0
 85 86 1.5 129 1.5
 86 87 1.0 126 2.0
 87 88 1.5 125 1.5
 88 89 1.5 133 1.0
 89 90 1.5 134 1.0
 90 91 1.5 124 1.5
 91 92 3.0
 92 93 1.5
 93 94 1.5 123 1.5
 94 95 1.5 135 1.0
 95 96 1.0 121 1.5
 96 97 1.5 119 1.5
 97 98 1.5 136 1.0
 98 99 1.5 117 1.5
 99 100 3.0
 100 101 1.5
 101 102 1.5 116 1.5
 102 103 1.5 137 1.0
 103 104 1.5 138 1.0
 104 105 1.0 115 1.5
 105 106 2.0 114 1.5
 106 107 1.5 139 1.0
 107 108 2.0 140 1.0
 108 109 1.5 141 1.0
 109 110 1.5 114 1.5
 110 111 2.0 142 1.0
 111 112 1.5 143 1.0
 112 113 1.5
 113 114 1.5 144 1.0
 114
 115 116 1.5 145 1.0
 116 146 1.0
 117 118 1.5 147 1.0
 118 119 1.5 148 1.0
 119 120 1.0
 120 121 1.0
 121 122 1.5
 122 123 1.5 149 1.0
 123 150 1.0
 124 125 1.5 151 1.0
 125 152 1.0
 126 127 1.5 153 1.0
 127 128 2.0 154 1.0
 128 129 1.5 155 1.0
 129
 130
 131
 132
 133
 134
 135
 136
 137
 138
 139
 140
 141
 142
 143
 144
 145
 146
 147
 148
 149
 150
 151
 152
 153
 154
 155
 156 157 2.0 204 1.5 205 1.0
 157 158 1.5 206 1.0
 158 159 2.0
 159 160 1.5 207 1.0
 160 161 1.5 204 1.5
 161 162 1.0 201 2.0
 162 163 1.5 200 1.5
 163 164 1.5 208 1.0
 164 165 1.5 209 1.0
 165 166 1.5 199 1.5
 166 167 3.0
 167 168 1.5
 168 169 1.5 198 1.5
 169 170 1.5 210 1.0
 170 171 1.0 196 1.5
 171 172 1.5 194 1.5
 172 173 1.5 211 1.0
 173 174 1.5 192 1.5
 174 175 3.0
 175 176 1.5
 176 177 1.5 191 1.5
 177 178 1.5 212 1.0
 178 179 1.5 213 1.0
 179 180 1.0 190 1.5
 180 181 2.0 189 1.5
 181 182 1.5 214 1.0
 182 183 2.0 215 1.0
 183 184 1.5 216 1.0
 184 185 1.5 189 1.5
 185 186 2.0 217 1.0
 186 187 1.5 218 1.0
 187 188 1.5
 188 189 1.5 219 1.0
 189
 190 191 1.5 220 1.0
 191 221 1.0
 192 193 1.5 222 1.0
 193 194 1.5 223 1.0
 194 195 1.0
 195 196 1.0
 196 197 1.5
 197 198 1.5 224 1.0
 198 225 1.0
 199 200 1.5 226 1.0
 200 227 1.0
 201 202 1.5 228 1.0
 202 203 2.0 229 1.0
 203 204 1.5 230 1.0
 204
 205
 206
 207
 208
 209
 210
 211
 212
 213
 214
 215
 216
 217
 218
 219
 220
 221
 222
 223
 224
 225
 226
 227
 228
 229
 230

