%chk=_s_4c1_c.chk
%mem=60000mb
%nprocshared=32

#P PBE1PBE/Def2SVP SP  SCF=(YQC,MaxCycle=900) int=(Grid=Superfinegrid) EmpiricalDispersion=GD3BJ SCRF=(PCM,Solvent=DiMethylSulfoxide)

_s_4c1_c

4 1
Pd -0.3798 5.3187 0.261
Pd 0.1888 -6.9068 1.5302
C 4.5528 -2.8126 1.637
C 4.378 -3.4742 2.6352
C 4.2987 -4.2768 3.7928
C 5.193 -4.0889 4.8289
C 5.2076 -4.9467 5.9346
C 4.3523 -6.017 6.0142
C 3.4268 -6.2516 4.9814
C 2.5445 -7.3559 4.9708
C 1.6724 -7.5236 3.9338
N 1.5917 -6.6332 2.9138
C 2.4065 -5.596 2.8829
C 3.3725 -5.3593 3.8718
H 5.9049 -3.2805 4.7697
H 5.9215 -4.7713 6.7254
H 4.3864 -6.6919 6.855
H 2.5742 -8.0655 5.7822
H 0.9971 -8.3736 3.8813
H 2.3098 -4.9015 2.0509
C 4.8918 -2.1595 0.4293
C 5.7912 -2.8386 -0.4141
C 6.2446 -2.2689 -1.5813
C 5.78 -1.0024 -1.906
N 6.0819 -0.225 -2.9936
C 5.4057 0.9563 -2.9028
C 5.4036 2.0419 -3.7674
C 4.6283 3.1289 -3.4365
C 3.8604 3.1659 -2.2583
C 3.8516 2.064 -1.4039
C 4.6161 0.954 -1.7253
C 4.8575 -0.3134 -1.0813
C 4.4118 -0.8965 0.0976
H 6.1402 -3.8171 -0.1228
H 6.9484 -2.7858 -2.214
H 6.788 -0.439 -3.6781
H 5.9957 2.0397 -4.6694
H 4.5956 3.9639 -4.118
H 3.2982 2.0778 -0.4797
H 3.7253 -0.3822 0.7502
C 3.0914 4.3768 -1.9562
C 3.5193 5.6432 -2.3804
C 2.7457 6.7606 -2.1247
C 1.5613 6.6142 -1.4219
N 1.1689 5.4189 -0.9791
C 1.8965 4.3318 -1.2362
H 4.4615 5.7528 -2.893
H 3.0605 7.7363 -2.4573
H 0.9098 7.457 -1.2053
H 1.5001 3.3913 -0.859
C -0.1378 -2.6207 5.4828
C -1.1581 -3.2643 5.3946
C -2.2915 -4.1022 5.381
C -3.3685 -3.8636 6.2122
C -4.4279 -4.7754 6.2938
C -4.4125 -5.9481 5.58
C -3.3434 -6.2242 4.7085
C -3.235 -7.4195 3.9631
C -2.1792 -7.603 3.1172
N -1.2377 -6.6463 2.9157
C -1.2903 -5.529 3.6174
C -2.292 -5.2741 4.566
H -3.3807 -2.9747 6.824
H -5.2539 -4.5591 6.9542
H -5.2099 -6.6675 5.6806
H -3.987 -8.1843 4.0736
H -2.0535 -8.5265 2.5623
H -0.5196 -4.7825 3.4355
C 1.0671 -1.8976 5.6193
C 2.1427 -2.511 6.2867
C 3.3375 -1.8517 6.4763
C 3.4564 -0.5624 5.9745
N 4.5244 0.2958 6.0094
C 4.1849 1.4642 5.3892
C 4.9338 2.6156 5.1811
C 4.3334 3.6669 4.5242
C 3.0053 3.5976 4.0667
C 2.2618 2.4365 4.2644
C 2.8495 1.3705 4.9226
C 2.3815 0.0632 5.2959
C 1.1799 -0.6037 5.1201
H 2.0165 -3.5126 6.6687
H 4.1508 -2.3222 7.006
H 5.4024 0.1165 6.468
H 5.9537 2.6894 5.5247
H 4.9116 4.5575 4.3351
H 1.2308 2.3741 3.9564
H 0.3489 -0.138 4.6158
C 2.4085 4.7533 3.3943
C 2.7457 6.0667 3.7446
C 2.1687 7.1298 3.0734
C 1.2506 6.873 2.0694
N 0.9111 5.6229 1.7444
C 1.4705 4.5916 2.3732
H 3.4413 6.2498 4.548
H 2.4213 8.146 3.3289
H 0.7734 7.6746 1.5099
H 1.1595 3.605 2.037
C -4.5662 1.2509 0.423
C -4.5376 1.9426 1.4148
C -4.5832 2.8379 2.5027
C -5.5213 2.6976 3.5066
C -5.6509 3.6672 4.5084
C -4.877 4.8012 4.5038
C -3.8978 4.9775 3.5094
C -3.083 6.1278 3.4141
C -2.1356 6.214 2.4348
N -1.9001 5.2 1.5637
C -2.6619 4.1223 1.6041
C -3.7103 3.9672 2.5233
H -6.1783 1.8415 3.504
H -6.395 3.5275 5.2778
H -5.0116 5.5659 5.2525
H -3.2209 6.9358 4.1146
H -1.5233 7.1015 2.3174
H -2.4502 3.3281 0.8909
C -4.6305 0.4727 -0.7533
C -5.1645 1.0599 -1.9146
C -5.2793 0.3486 -3.0889
C -4.8372 -0.9678 -3.0985
N -4.8202 -1.8783 -4.1227
C -4.2956 -3.0555 -3.6712
C -4.0813 -4.2534 -4.3413
C -3.5377 -5.302 -3.6326
C -3.1993 -5.1849 -2.2725
C -3.4021 -3.9781 -1.6073
C -3.9475 -2.9142 -2.3041
C -4.2925 -1.5677 -1.9363
C -4.1915 -0.8477 -0.7569
H -5.5034 2.0839 -1.8727
H -5.7076 0.8004 -3.9696
H -5.1875 -1.7237 -5.0471
H -4.3346 -4.3643 -5.384
H -3.3442 -6.2299 -4.1473
H -3.1858 -3.8763 -0.5564
H -3.7898 -1.2926 0.1388
C -2.6456 -6.3386 -1.561
C -3.0327 -7.6495 -1.8659
C -2.4736 -8.7118 -1.1787
C -1.5446 -8.4558 -0.1846
N -1.1861 -7.2066 0.1233
C -1.7064 -6.1771 -0.5409
H -3.7785 -7.83 -2.6237
H -2.7584 -9.7265 -1.405
H -1.0736 -9.2571 0.3805
H -1.3481 -5.1929 -0.2476
C -0.3069 1.0116 -3.8933
C -1.2806 1.7286 -3.8444
C -2.3968 2.589 -3.9114
C -3.3559 2.4049 -4.8886
C -4.4091 3.3128 -5.0468
C -4.5094 4.4288 -4.2543
C -3.5538 4.6614 -3.2488
C -3.565 5.8084 -2.4228
C -2.6039 5.9713 -1.4669
N -1.6438 5.0383 -1.2493
C -1.5939 3.9596 -2.0074
C -2.5023 3.7207 -3.0491
H -3.275 1.5587 -5.5528
H -5.14 3.1388 -5.8222
H -5.3069 5.1407 -4.3985
H -4.3319 6.5536 -2.5616
H -2.568 6.852 -0.8309
H -0.8119 3.2319 -1.8007
C 0.8905 0.2843 -4.0869
C 1.8463 0.8741 -4.9356
C 3.0181 0.226 -5.2507
C 3.2324 -1.0285 -4.6978
N 4.3004 -1.872 -4.8597
C 4.0869 -3.0103 -4.1391
C 4.8895 -4.1346 -4.0046
C 4.4332 -5.1623 -3.2123
C 3.1901 -5.1023 -2.5562
C 2.3975 -3.9617 -2.6795
C 2.8446 -2.9101 -3.4633
C 2.2927 -1.6277 -3.824
C 1.1106 -0.9661 -3.5182
H 1.6397 1.8458 -5.3565
H 3.7382 0.6743 -5.9166
H 5.0562 -1.7285 -5.5088
H 5.8401 -4.2068 -4.5098
H 5.0639 -6.0261 -3.0765
H 1.4277 -3.9021 -2.2144
H 0.3725 -1.4117 -2.8715
C 2.7563 -6.2554 -1.7617
C 3.15 -7.5613 -2.0876
C 2.767 -8.6231 -1.2887
C 1.9691 -8.3814 -0.1828
N 1.5564 -7.1472 0.1095
C 1.9349 -6.1133 -0.6422
H 3.739 -7.7446 -2.972
H 3.0747 -9.6289 -1.5245
H 1.6505 -9.1775 0.4853
H 1.5736 -5.1362 -0.3278

