# closed shell KS, PBE0/def2-SVP/D4
! DFT COPT RKS PBE0 RIJCOSX GridX6 def2-SVP def2/J  D4 Grid6 NOFINALGRID SlowConv TightSCF XYZFILE PDBFILE

%base "_fe7ll" 

%scf
   MaxIter 2000
end

%geom
   MaxIter 1000
end

%pal
   nprocs 128
end

* xyzfile 4 1 _fe7ll.xyz
