%chk=_s_5a1_a.chk
%mem=60000mb
%nprocshared=32

#P PBE1PBE/Def2SVP SP  SCF=(YQC,MaxCycle=900) int=(Grid=Superfinegrid) EmpiricalDispersion=GD3BJ SCRF=(PCM,Solvent=DiMethylSulfoxide)

_s_5a1_a

4 1
Pd 0.1935 6.8856 0.1689
Pd -0.1795 -3.9293 -0.1644
C 6.8491 3.3348 -0.4632
C 6.674 4.5256 -0.3404
C 6.2777 5.8685 -0.1853
C 7.1732 6.9107 -0.0384
C 6.7198 8.2243 0.1394
C 5.3802 8.5165 0.1811
C 4.4322 7.4818 0.0292
C 3.0405 7.7059 0.0753
N 2.162 6.7377 -0.0703
C 2.5851 5.4666 -0.2925
C 3.9082 5.1423 -0.3449
C 4.8806 6.1462 -0.1681
H 8.2338 6.7101 -0.0554
H 7.447 9.014 0.2512
H 5.0435 9.5303 0.3286
H 2.6523 8.7065 0.2407
H 1.8122 4.7125 -0.4356
H 4.2279 4.1285 -0.5229
C 6.9924 1.9416 -0.629
C 8.1683 1.4014 -1.2013
C 8.2731 0.0562 -1.4045
C 7.2235 -0.8181 -1.0461
C 7.3026 -2.2098 -1.2576
C 6.2827 -3.0346 -0.8814
C 5.115 -2.5136 -0.2744
C 5.0038 -1.1567 -0.0781
C 6.0477 -0.2835 -0.4525
C 5.957 1.107 -0.2569
H 8.9723 2.0669 -1.4782
H 9.1672 -0.3599 -1.8459
H 8.1898 -2.6149 -1.7217
H 6.3567 -4.0947 -1.069
H 4.1338 -0.7393 0.405
H 5.0688 1.5195 0.197
C 4.0689 -3.4572 0.1482
C 4.4256 -4.6776 0.7312
C 3.4423 -5.5894 1.0728
C 2.1199 -5.2707 0.8234
N 1.7698 -4.0932 0.2916
C 2.709 -3.2028 -0.034
H 5.4635 -4.901 0.9219
H 3.6979 -6.5368 1.519
H 1.3202 -5.9717 1.0549
H 2.3582 -2.274 -0.4732
C 0.686 3.3155 6.8291
C 0.6391 4.5113 6.6512
C 0.5658 5.8604 6.2527
C 0.507 6.9124 7.1469
C 0.4081 8.2338 6.6921
C 0.3593 8.5248 5.3524
C 0.4225 7.4799 4.4057
C 0.3658 7.7033 3.0143
N 0.4296 6.7255 2.1368
C 0.572 5.443 2.5602
C 0.6275 5.1192 3.8833
C 0.5385 6.1351 4.8551
H 0.532 6.7138 8.2077
H 0.364 9.0311 7.4183
H 0.2732 9.5454 5.0149
H 0.2613 8.7118 2.6254
H 0.6481 4.679 1.7874
H 0.7421 4.0963 4.2033
C 0.7594 1.9147 6.9751
C 1.3078 1.3395 8.1458
C 1.4186 -0.0163 8.2531
C 0.9871 -0.8667 7.2115
C 1.1011 -2.2696 7.2938
C 0.655 -3.0693 6.282
C 0.0722 -2.5106 5.1195
C -0.0293 -1.1436 5.0049
C 0.418 -0.2956 6.0408
C 0.3182 1.1048 5.9471
H 1.6399 1.9865 8.9439
H 1.8411 -0.4594 9.1434
H 1.5464 -2.7035 8.177
H 0.768 -4.1397 6.3583
H -0.4925 -0.6962 4.1391
H -0.117 1.5452 5.0629
C -0.4282 -3.4251 4.0819
C -1.0929 -4.5997 4.449
C -1.51 -5.487 3.4725
C -1.2523 -5.1909 2.1464
N -0.6405 -4.0561 1.7866
C -0.2426 -3.1883 2.7193
H -1.2873 -4.8061 5.4898
H -2.0207 -6.399 3.7361
H -1.5424 -5.8752 1.3517
H 0.2578 -2.2941 2.3608
C -6.6896 3.7637 0.637
C -6.4329 4.9449 0.587
C -5.9456 6.2646 0.5122
C -6.7679 7.3731 0.4423
C -6.2261 8.6612 0.3426
C -4.8697 8.8628 0.3038
C -3.9946 7.7579 0.3784
C -2.5911 7.8886 0.3313
N -1.7806 6.8552 0.4051
C -2.289 5.6042 0.5497
C -3.631 5.3688 0.5963
C -4.5328 6.4463 0.4955
H -7.8397 7.245 0.4594
H -6.8976 9.5045 0.2899
H -4.4648 9.8585 0.217
H -2.1357 8.8689 0.2261
H -1.569 4.7913 0.6351
H -4.0187 4.3698 0.7126
C -6.9279 2.3759 0.7158
C -8.1363 1.8819 1.2615
C -8.3328 0.5367 1.3792
C -7.3472 -0.3826 0.9577
C -7.5214 -1.7764 1.0798
C -6.5619 -2.6432 0.6439
C -5.3627 -2.1653 0.0634
C -5.1588 -0.8094 -0.0461
C -6.139 0.1072 0.391
C -5.9534 1.4979 0.2838
H -8.8917 2.5818 1.5863
H -9.2521 0.1554 1.7998
H -8.4331 -2.1488 1.5234
H -6.7083 -3.7056 0.7633
H -4.2635 -0.4224 -0.5077
H -5.0403 1.8769 -0.1495
C -4.3848 -3.1489 -0.426
C -4.825 -4.3015 -1.0847
C -3.9068 -5.2538 -1.4912
C -2.5653 -5.0428 -1.2297
N -2.1348 -3.9293 -0.6242
C -3.0104 -3.0001 -0.2359
H -5.8761 -4.4409 -1.2828
H -4.2273 -6.1503 -1.9967
H -1.8155 -5.7797 -1.5114
H -2.5962 -2.128 0.2605
C -0.5924 3.7821 -6.6933
C -0.461 4.9587 -6.4438
C -0.2912 6.2721 -5.9636
C -0.1721 7.3724 -6.7913
C 0.0208 8.6528 -6.2564
C 0.1041 8.8545 -4.9021
C -0.0184 7.7583 -4.0215
C 0.0672 7.8892 -2.6197
N -0.0523 6.8642 -1.8041
C -0.2826 5.623 -2.3048
C -0.3736 5.3878 -3.6445
C -0.2288 6.4553 -4.5522
H -0.2229 7.2435 -7.8618
H 0.1101 9.4898 -6.932
H 0.262 9.8438 -4.5029
H 0.2421 8.8622 -2.1704
H -0.3999 4.8179 -1.5804
H -0.5587 4.3969 -4.0261
C -0.7637 2.4011 -6.9219
C -1.3621 1.9363 -8.1169
C -1.5667 0.6001 -8.3033
C -1.1839 -0.3391 -7.3206
C -1.3938 -1.7236 -7.4853
C -0.9927 -2.6114 -6.5297
C -0.362 -2.1647 -5.344
C -0.167 -0.8172 -5.1489
C -0.5655 0.1203 -6.1259
C -0.369 1.5024 -5.9503
H -1.6572 2.6515 -8.8701
H -2.0275 0.2414 -9.2124
H -1.8763 -2.072 -8.3865
H -1.1783 -3.6653 -6.6685
H 0.3339 -0.4555 -4.2642
H 0.1043 1.8579 -5.0477
C 0.0859 -3.1723 -4.3705
C 0.6695 -4.3623 -4.8172
C 1.0359 -5.3335 -3.9022
C 0.8077 -5.1048 -2.5574
N 0.2734 -3.9577 -2.1212
C -0.0736 -3.0093 -2.9939
H 0.8415 -4.5158 -5.871
H 1.4843 -6.2583 -4.2273
H 1.0588 -5.8546 -1.8099
H -0.5115 -2.1084 -2.5753

