%chk=_s_3d1_b.chk
%mem=60000mb
%nprocshared=32

#P PBE1PBE/Def2SVP SP  SCF=(YQC,MaxCycle=900) int=(Grid=Superfinegrid) EmpiricalDispersion=GD3BJ SCRF=(PCM,Solvent=DiMethylSulfoxide)

_s_3d1_b

4 1
Pd 0.2928 6.4501 0.3405
Pd 0.0933 -3.1953 0.2209
C 5.0538 0.7109 0.1299
C 4.5782 -0.3909 0.2718
C 4.0125 -1.6736 0.4157
C 4.8027 -2.8068 0.6526
C 4.1881 -4.0403 0.7759
C 2.8094 -4.1274 0.6568
N 2.0611 -3.0461 0.4252
C 2.6304 -1.8463 0.3091
H 5.8738 -2.7088 0.7378
H 4.7701 -4.9285 0.9615
H 2.2845 -5.074 0.7527
H 1.967 -1.0031 0.1179
C 5.568 2.0076 -0.085
C 6.8299 2.1789 -0.659
C 7.2928 3.4565 -0.9139
C 6.5171 4.5614 -0.6062
C 5.259 4.4044 -0.0195
C 4.7924 3.1197 0.243
H 7.4315 1.3185 -0.9078
H 8.2643 3.5951 -1.3632
H 6.8849 5.5461 -0.8485
H 3.8442 2.9645 0.7324
C 4.4345 5.5848 0.2838
C 5.0027 6.8032 0.6709
C 4.1891 7.9017 0.893
C 2.819 7.767 0.746
N 2.2713 6.5979 0.4067
C 3.0456 5.538 0.1738
H 6.0695 6.8858 0.8072
H 4.6127 8.8503 1.1807
H 2.1396 8.6023 0.9002
H 2.5329 4.629 -0.1326
C 0.454 2.4873 5.1877
C 0.3526 3.6169 4.7707
C 0.2461 4.9198 4.2445
C 0.0647 6.043 5.063
C -0.0337 7.2918 4.4755
C 0.0502 7.4034 3.0957
N 0.23 6.3318 2.3206
C 0.3265 5.119 2.8647
H 0.0005 5.9259 6.1336
H -0.1761 8.1735 5.0792
H -0.0292 8.3625 2.5923
H 0.4785 4.2815 2.1835
C 0.6183 1.1621 5.6446
C 1.2006 0.9157 6.8902
C 1.4039 -0.3892 7.2992
C 1.0342 -1.4471 6.4862
C 0.4376 -1.2145 5.2443
C 0.2301 0.098 4.8302
H 1.4958 1.74 7.5207
H 1.8604 -0.586 8.2571
H 1.2358 -2.4554 6.812
H -0.2618 0.3123 3.8948
C 0.0693 -2.3513 4.3854
C -0.3685 -3.5658 4.9244
C -0.6392 -4.633 4.0846
C -0.484 -4.4721 2.7187
N -0.0997 -3.3037 2.1978
C 0.1736 -2.2717 2.9973
H -0.5045 -3.6692 5.9894
H -0.9667 -5.5787 4.4851
H -0.6722 -5.2853 2.0212
H 0.508 -1.3619 2.5054
C -4.6906 2.5883 0.5535
C -4.2359 3.7044 0.4644
C -3.6635 4.9893 0.3877
C -4.4414 6.1547 0.3654
C -3.8071 7.3835 0.3101
C -2.4216 7.4339 0.2836
N -1.6848 6.3199 0.3045
C -2.274 5.1266 0.3513
H -5.5178 6.0862 0.392
H -4.3796 8.2967 0.291
H -1.8807 8.3763 0.2433
H -1.6246 4.2532 0.3676
C -5.1918 1.2773 0.6978
C -6.4611 1.0643 1.2411
C -6.9172 -0.2288 1.4182
C -6.1287 -1.3086 1.0584
C -4.8623 -1.1087 0.5035
C -4.399 0.1911 0.3252
H -7.0745 1.9052 1.5252
H -7.8941 -0.3993 1.8441
H -6.4926 -2.3087 1.2344
H -3.4409 0.3785 -0.1327
C -4.0331 -2.2668 0.1325
C -4.6024 -3.435 -0.3857
C -3.7952 -4.52 -0.6828
C -2.4308 -4.4216 -0.4713
N -1.8815 -3.3006 0.0018
C -2.6495 -2.2511 0.301
H -5.6648 -3.4861 -0.5652
H -4.2187 -5.4299 -1.0762
H -1.7571 -5.2476 -0.6849
H -2.1345 -1.3838 0.7095
C -0.1003 2.7329 -4.6183
C 0.0351 3.858 -4.1983
C 0.1574 5.1408 -3.6288
C 0.172 6.3133 -4.3966
C 0.2649 7.5344 -3.7522
C 0.3317 7.5726 -2.3667
N 0.3186 6.4537 -1.6405
C 0.2412 5.266 -2.2406
H 0.1096 6.2561 -5.4722
H 0.2798 8.4528 -4.3165
H 0.3988 8.5085 -1.8204
H 0.2376 4.3825 -1.6005
C -0.3041 1.4197 -5.0922
C -0.8884 1.2086 -6.3435
C -1.1261 -0.0831 -6.7749
C -0.7835 -1.1635 -5.9799
C -0.1875 -0.9659 -4.7318
C 0.0486 0.3323 -4.2913
H -1.1566 2.051 -6.9621
H -1.5844 -0.2516 -7.7374
H -1.0039 -2.162 -6.3237
H 0.5375 0.5138 -3.3473
C 0.1712 -2.1293 -3.9044
C 0.6562 -3.305 -4.4863
C 0.941 -4.4004 -3.6887
C 0.7479 -4.3035 -2.3222
N 0.3085 -3.1735 -1.7598
C 0.0238 -2.1142 -2.5181
H 0.8194 -3.3541 -5.5514
H 1.3091 -5.3164 -4.1216
H 0.9498 -5.1404 -1.6558
H -0.3543 -1.2408 -1.994

