%chk=_s_4b1_a.chk
%mem=60000mb
%nprocshared=32

#P PBE1PBE/Def2SVP SP  SCF=(YQC,MaxCycle=900) int=(Grid=Superfinegrid) EmpiricalDispersion=GD3BJ SCRF=(PCM,Solvent=DiMethylSulfoxide)

_s_4b1_a

4 1
Pd 0.5158 5.8423 0.1048
Pd 1.2392 -5.4911 -0.041
C 5.5825 2.0116 -0.3366
C 5.5821 3.1983 -0.5724
C 5.7698 4.5552 -0.899
C 7.0429 4.9686 -1.2541
C 7.3058 6.2965 -1.6014
C 6.3001 7.2299 -1.6056
C 4.9914 6.8532 -1.2548
C 3.9199 7.773 -1.2472
C 2.6722 7.3571 -0.8904
N 2.4067 6.0724 -0.5357
C 3.3799 5.1813 -0.5394
C 4.704 5.5046 -0.8904
H 7.847 4.2488 -1.2586
H 8.3115 6.5813 -1.8694
H 6.4974 8.2552 -1.876
H 4.1004 8.7997 -1.523
H 1.8331 8.0515 -0.8856
H 3.1188 4.1666 -0.2541
C 5.5064 0.6218 -0.1133
C 4.5761 0.0961 0.7881
C 4.4383 -1.269 0.9135
C 5.223 -2.1396 0.1512
C 6.2042 -1.6116 -0.6884
C 6.344 -0.2448 -0.8231
H 3.9655 0.7633 1.3745
H 3.7297 -1.6693 1.6218
H 6.8277 -2.2721 -1.2708
H 7.0836 0.1599 -1.4965
C 4.9335 -3.5807 0.1638
C 5.901 -4.5899 0.1638
C 5.4946 -5.9143 0.1373
C 4.1409 -6.2188 0.0985
N 3.2186 -5.257 0.0874
C 3.6012 -3.9792 0.1224
H 6.9495 -4.338 0.1989
H 6.2214 -6.7105 0.1446
H 3.7794 -7.2409 0.0722
H 2.8138 -3.2241 0.0956
C 1.197 1.6632 4.8618
C 1.3745 2.8567 4.9502
C 1.636 4.21 5.239
C 1.9879 4.5417 6.5366
C 2.2719 5.8614 6.8983
C 2.2147 6.8686 5.9682
C 1.865 6.5764 4.6379
C 1.7959 7.5745 3.6412
C 1.4445 7.238 2.3683
N 1.1537 5.9607 2.0068
C 1.2151 4.9987 2.9079
C 1.5656 5.2369 4.2501
H 2.0396 3.7633 7.2823
H 2.5395 6.0812 7.9203
H 2.4357 7.8882 6.2419
H 2.0208 8.5972 3.8985
H 1.3925 7.994 1.586
H 0.9789 3.9937 2.5712
C 1.0432 0.2736 4.6818
C 1.8123 -0.6157 5.4396
C 1.7459 -1.973 5.1967
C 0.9168 -2.4683 4.19
C 0.0961 -1.582 3.4859
C 0.1532 -0.2266 3.7269
H 2.4775 -0.2334 6.1983
H 2.3732 -2.6474 5.7588
H -0.6035 -1.964 2.7589
H -0.4785 0.4531 3.1781
C 0.9739 -3.8817 3.7904
C 1.043 -4.9603 4.6772
C 1.1322 -6.2465 4.1699
C 1.1653 -6.4444 2.7964
N 1.1106 -5.4159 1.9507
C 1.0139 -4.1747 2.4309
H 1.0125 -4.7911 5.7424
H 1.1785 -7.0951 4.8333
H 1.2398 -7.4331 2.357
H 0.9869 -3.3616 1.7037
C -4.0188 1.3842 0.458
C -4.1673 2.5544 0.7272
C -4.5241 3.8668 1.0923
C -5.836 4.1034 1.4673
C -6.264 5.377 1.852
C -5.3868 6.4319 1.8738
C -4.0443 6.2361 1.504
C -3.1003 7.2864 1.5131
C -1.8129 7.0438 1.138
N -1.3873 5.813 0.7497
C -2.2377 4.8041 0.7359
C -3.5892 4.9455 1.1025
H -6.5408 3.2862 1.4578
H -7.2952 5.5228 2.1346
H -5.7117 7.416 2.1726
H -3.409 8.2742 1.816
H -1.0706 7.8408 1.1451
H -1.8507 3.8389 0.4233
C -3.7692 0.0217 0.1966
C -2.7887 -0.3587 -0.7243
C -2.4802 -1.6917 -0.8863
C -3.1407 -2.6739 -0.1421
C -4.173 -2.2962 0.717
C -4.4836 -0.9621 0.8885
H -2.2732 0.3951 -1.2971
H -1.7335 -1.9808 -1.6095
H -4.7021 -3.045 1.2858
H -5.262 -0.6716 1.5768
C -2.6699 -4.0654 -0.1929
C -3.5005 -5.1899 -0.2137
C -2.9279 -6.4515 -0.2218
C -1.5461 -6.5812 -0.1961
N -0.7542 -5.5099 -0.1652
C -1.2973 -4.2911 -0.1674
H -4.5728 -5.0734 -0.2377
H -3.547 -7.3339 -0.2458
H -1.0569 -7.5491 -0.1962
H -0.6129 -3.4422 -0.1257
C 0.3783 1.7325 -4.7588
C 0.0505 2.8957 -4.8177
C -0.3808 4.2116 -5.0735
C -0.7685 4.5294 -6.3644
C -1.2179 5.811 -6.694
C -1.2928 6.7925 -5.7381
C -0.9123 6.5128 -4.4136
C -0.9742 7.4852 -3.3914
C -0.5855 7.1635 -2.1255
N -0.1337 5.9251 -1.7952
C -0.0694 4.9869 -2.7208
C -0.4448 5.213 -4.0583
H -0.7181 3.7705 -7.1301
H -1.5084 6.0214 -7.7118
H -1.6418 7.7823 -5.987
H -1.3279 8.477 -3.6238
H -0.633 7.8993 -1.3239
H 0.2928 4.012 -2.4086
C 0.7084 0.3698 -4.6136
C 0.066 -0.5901 -5.4026
C 0.3051 -1.9337 -5.1946
C 1.1838 -2.3454 -4.1923
C 1.8784 -1.3803 -3.4568
C 1.6488 -0.0375 -3.6628
H -0.6373 -0.276 -6.1582
H -0.2258 -2.6676 -5.7809
H 2.6164 -1.6888 -2.7327
H 2.1836 0.7026 -3.0898
C 1.3062 -3.7645 -3.8294
C 1.3834 -4.8195 -4.7436
C 1.4577 -6.1192 -4.2694
C 1.4415 -6.3555 -2.9016
N 1.3566 -5.351 -2.03
C 1.2946 -4.0957 -2.4782
H 1.3994 -4.6201 -5.8038
H 1.5259 -6.9491 -4.9542
H 1.4928 -7.3566 -2.488
H 1.2099 -3.305 -1.7309

