%chk=_s_4b1_b.chk
%mem=60000mb
%nprocshared=32

#P PBE1PBE/Def2SVP SP  SCF=(YQC,MaxCycle=900) int=(Grid=Superfinegrid) EmpiricalDispersion=GD3BJ SCRF=(PCM,Solvent=DiMethylSulfoxide)

_s_4b1_b

4 1
Pd -0.919 7.0949 0.5696
Pd -0.2152 -4.2489 -0.2822
C 4.204 -0.2927 -1.0601
C 4.482 -1.4593 -1.2189
C 4.8494 -2.807 -1.4082
C 6.1567 -3.1356 -1.7133
C 6.5379 -4.4685 -1.9064
C 5.6281 -5.4897 -1.7916
C 4.2873 -5.2044 -1.474
C 3.3021 -6.2076 -1.3263
C 2.0208 -5.8627 -1.0037
N 1.6533 -4.5703 -0.8234
C 2.5404 -3.6053 -0.9583
C 3.8837 -3.851 -1.2818
H 6.8931 -2.3523 -1.8082
H 7.5666 -4.688 -2.1479
H 5.928 -6.5153 -1.9393
H 3.5757 -7.2413 -1.4663
H 1.2348 -6.6065 -0.8753
H 2.197 -2.5837 -0.8078
C 3.8465 1.0572 -0.8542
C 4.636 1.8801 -0.0456
C 4.2718 3.1935 0.1697
C 3.1099 3.7126 -0.4051
C 2.3306 2.8904 -1.2213
C 2.6943 1.5797 -1.4489
H 5.5295 1.4823 0.4104
H 4.8798 3.8131 0.8107
H 1.4581 3.2925 -1.7101
H 2.1046 0.9583 -2.1034
C 2.7197 5.1094 -0.1657
C 3.6663 6.1391 -0.1556
C 3.2567 7.443 0.0626
C 1.9112 7.7007 0.2666
N 1.0073 6.7203 0.263
C 1.3878 5.4574 0.056
H 4.7068 5.9185 -0.3366
H 3.9692 8.2518 0.0693
H 1.5451 8.7088 0.4385
H 0.5973 4.7062 0.0868
C -0.2158 2.6997 5.0193
C -0.3222 3.8765 5.2772
C -0.3778 5.2174 5.7064
C -0.3257 5.4892 7.0618
C -0.3123 6.8051 7.5352
C -0.3392 7.8655 6.6645
C -0.4063 7.6348 5.2788
C -0.4304 8.685 4.3337
C -0.524 8.3984 3.0044
N -0.6174 7.123 2.5434
C -0.5696 6.1156 3.3913
C -0.4465 6.3 4.7799
H -0.2815 4.6705 7.7636
H -0.2684 6.9796 8.5993
H -0.3104 8.8805 7.0283
H -0.3751 9.7062 4.6754
H -0.5288 9.1892 2.2527
H -0.6351 5.1157 2.9739
C -0.0755 1.3379 4.679
C -0.8852 0.3704 5.28
C -0.7524 -0.9574 4.928
C 0.1858 -1.3461 3.9699
C 1.0157 -0.3796 3.3966
C 0.8894 0.9482 3.7454
H -1.6211 0.6673 6.0109
H -1.4021 -1.6936 5.3752
H 1.7833 -0.6749 2.6991
H 1.5372 1.6908 3.3083
C 0.2341 -2.7424 3.5132
C 0.0954 -3.837 4.3736
C 0.0651 -5.1169 3.8467
C 0.1256 -5.2885 2.4714
N 0.2577 -4.247 1.6515
C 0.3412 -3.0111 2.1521
H 0.0254 -3.6823 5.4391
H -0.0256 -5.9754 4.4921
H 0.0695 -6.2678 2.0089
H 0.4824 -2.2021 1.4308
C -5.2635 2.9727 1.5816
C -5.5319 4.152 1.5978
C -5.9568 5.4943 1.639
C -7.2848 5.7711 1.9089
C -7.7527 7.0882 1.9637
C -6.9051 8.1453 1.7478
C -5.5472 7.9109 1.4636
C -4.6282 8.9567 1.2269
C -3.3236 8.6657 0.9541
N -2.8653 7.392 0.8958
C -3.6929 6.3858 1.1098
C -5.0535 6.5746 1.4042
H -7.9696 4.9556 2.0848
H -8.795 7.2661 2.1797
H -7.2657 9.161 1.7908
H -4.9674 9.9795 1.2643
H -2.5973 9.4514 0.7675
H -3.2769 5.3816 1.0468
C -4.9315 1.6041 1.5082
C -3.7064 1.1388 1.9946
C -3.3672 -0.1897 1.852
C -4.2425 -1.0839 1.23
C -5.4859 -0.6261 0.7912
C -5.8278 0.7038 0.9238
H -3.0307 1.8225 2.4822
H -2.4278 -0.5429 2.2498
H -6.1717 -1.3065 0.3107
H -6.7813 1.0578 0.5638
C -3.8347 -2.4746 0.9899
C -4.6956 -3.5652 1.145
C -4.2331 -4.8419 0.8713
C -2.9264 -5.0147 0.4444
N -2.1063 -3.9729 0.2914
C -2.54 -2.7403 0.5545
H -5.7061 -3.4123 1.4907
H -4.8783 -5.6975 0.9892
H -2.5139 -5.9937 0.2149
H -1.8302 -1.9312 0.3957
C -2.0626 3.3128 -4.3733
C -2.043 4.5196 -4.4563
C -1.9939 5.9044 -4.7053
C -2.2035 6.3579 -5.9963
C -2.1191 7.7176 -6.3093
C -1.805 8.6417 -5.3443
C -1.5827 8.2255 -4.0196
C -1.2342 9.1284 -2.9899
C -1.0369 8.6674 -1.7226
N -1.1868 7.3561 -1.3957
C -1.4982 6.4821 -2.3314
C -1.6944 6.8465 -3.6756
H -2.4336 5.646 -6.7742
H -2.2936 8.0346 -7.326
H -1.7224 9.6891 -5.5879
H -1.1231 10.176 -3.22
H -0.7445 9.3412 -0.9147
H -1.6068 5.4472 -2.0239
C -2.0206 1.9124 -4.2186
C -2.3093 1.3316 -2.9802
C -2.188 -0.0306 -2.8146
C -1.7854 -0.8452 -3.8765
C -1.5487 -0.2693 -5.1245
C -1.6599 1.0961 -5.2953
H -2.6249 1.9565 -2.1607
H -2.4328 -0.4751 -1.8623
H -1.2428 -0.8879 -5.954
H -1.4544 1.5406 -6.2569
C -1.5938 -2.2839 -3.6454
C -2.0467 -3.2747 -4.5221
C -1.8657 -4.6072 -4.1914
C -1.2571 -4.9355 -2.9885
N -0.8058 -3.9923 -2.1637
C -0.9484 -2.7038 -2.4859
H -2.5507 -2.9998 -5.4357
H -2.2091 -5.3886 -4.85
H -1.1205 -5.9647 -2.6752
H -0.5099 -1.9763 -1.7985

