%chk=_s_4c3_b.chk
%mem=60000mb
%nprocshared=32

#P PBE1PBE/Def2SVP SP  SCF=(YQC,MaxCycle=900) int=(Grid=Superfinegrid) EmpiricalDispersion=GD3BJ SCRF=(PCM,Solvent=DiMethylSulfoxide)

_s_4c3_b

4 1
Pd -0.7482 6.8016 -0.2579
Pd 0.6825 -6.8543 -0.1004
C 5.4992 -3.5196 -0.8699
C 5.4661 -4.1653 0.1532
C 5.5209 -4.9932 1.2938
C 6.6398 -4.9882 2.1053
C 6.7655 -5.8958 3.1635
C 5.8027 -6.8443 3.4044
C 4.6458 -6.8856 2.6056
C 3.6302 -7.8563 2.7569
C 2.5342 -7.8314 1.9428
N 2.348 -6.8623 1.0114
C 3.2812 -5.9457 0.8351
C 4.4762 -5.925 1.5677
H 7.4341 -4.2846 1.9084
H 7.6508 -5.8591 3.7801
H 5.9237 -7.567 4.1959
H 3.735 -8.6204 3.5105
H 1.7583 -8.5868 2.0127
H 3.1043 -5.1761 0.0871
C 5.6776 -2.8248 -2.0871
C 6.6431 -3.3381 -2.9736
C 6.9454 -2.6954 -4.1527
C 6.2756 -1.5126 -4.4354
N 6.4309 -0.6615 -5.497
C 5.5994 0.4097 -5.3415
C 5.4513 1.5337 -6.1457
C 4.5419 2.4887 -5.7557
C 3.7806 2.3362 -4.5803
C 3.9268 1.2087 -3.7731
C 4.8431 0.2432 -4.1522
C 5.2861 -0.9946 -3.5641
C 4.9797 -1.6589 -2.3857
H 7.1608 -4.2476 -2.709
H 7.6949 -3.0879 -4.8228
H 7.1016 -0.7762 -6.2386
H 6.0397 1.6564 -7.0422
H 4.409 3.3816 -6.3471
H 3.344 1.1023 -2.8731
H 4.2443 -1.268 -1.7018
C 2.8974 3.3702 -4.2276
C 2.1793 4.304 -3.9507
C 1.4058 5.4316 -3.636
C 1.2382 6.4736 -4.5618
C 0.5093 7.5897 -4.1988
C -0.04 7.6567 -2.9268
N 0.1133 6.6594 -2.0497
C 0.808 5.5722 -2.3794
H 1.6833 6.3937 -5.5409
H 0.3685 8.4057 -4.8889
H -0.6146 8.5171 -2.5921
H 0.9 4.7966 -1.6219
C 1.3908 4.044 4.5659
C 2.1788 4.7079 3.932
C 3.1082 5.5545 3.2927
C 4.3884 5.6891 3.7959
C 5.2869 6.6087 3.2428
C 4.9141 7.4287 2.207
C 3.6222 7.3242 1.6609
C 3.1509 8.1594 0.6232
C 1.8855 7.9976 0.138
N 1.0596 7.0169 0.5861
C 1.4595 6.2275 1.5659
C 2.7168 6.3521 2.1764
H 4.6919 5.0861 4.6379
H 6.2799 6.6841 3.6593
H 5.5976 8.1612 1.8076
H 3.7945 8.929 0.228
H 1.4844 8.649 -0.6322
H 0.7734 5.4527 1.9002
C 0.4734 3.3287 5.3673
C -0.0172 3.9633 6.5232
C -0.9001 3.3281 7.3687
C -1.2868 2.0329 7.0498
N -2.1292 1.1853 7.7206
C -2.1853 -0.0106 7.0621
C -2.8842 -1.1676 7.3889
C -2.7442 -2.26 6.5639
C -1.9218 -2.2118 5.4211
C -1.2352 -1.0459 5.0806
C -1.3665 0.058 5.9047
C -0.7929 1.3783 5.8943
C 0.0856 2.0319 5.0438
H 0.3144 4.9658 6.7471
H -1.27 3.8198 8.2552
H -2.597 1.395 8.5869
H -3.508 -1.2125 8.2687
H -3.2633 -3.1779 6.7947
H -0.6077 -1.0172 4.2045
H 0.4741 1.5472 4.1628
C -1.776 -3.3749 4.6459
C -1.6363 -4.3943 4.0087
C -1.4749 -5.6007 3.3096
C -2.1375 -6.7695 3.7171
C -1.9344 -7.9407 3.0124
C -1.083 -7.9339 1.9175
N -0.4564 -6.8189 1.5288
C -0.6363 -5.6797 2.1923
H -2.7928 -6.7421 4.5735
H -2.4286 -8.8529 3.3051
H -0.893 -8.8317 1.3333
H -0.0926 -4.8076 1.8338
C -5.1473 3.4636 2.0299
C -4.5865 4.2267 2.7836
C -4.073 5.1977 3.6677
C -4.6109 5.3309 4.9345
C -4.2272 6.3826 5.7738
C -3.3302 7.3333 5.3543
C -2.7525 7.2351 4.0759
C -1.8601 8.1995 3.5556
C -1.3442 8.0461 2.3013
N -1.6177 6.9565 1.538
C -2.4541 6.0386 1.9868
C -3.0902 6.1365 3.2333
H -5.3535 4.6233 5.2698
H -4.6682 6.455 6.7564
H -3.0667 8.1646 5.9891
H -1.6039 9.061 4.1513
H -0.6886 8.79 1.8577
H -2.646 5.1785 1.3494
C -5.9241 2.6735 1.1535
C -7.2274 3.1334 0.8832
C -8.0683 2.4455 0.0379
C -7.595 1.2706 -0.5315
N -8.2271 0.4069 -1.386
C -7.4008 -0.647 -1.6548
C -7.6353 -1.7695 -2.4411
C -6.6448 -2.7209 -2.5153
C -5.4279 -2.5642 -1.8219
C -5.1796 -1.4245 -1.056
C -6.1711 -0.4614 -0.97
C -6.2934 0.783 -0.2536
C -5.4486 1.4951 0.5859
H -7.5637 4.0462 1.3509
H -9.065 2.8045 -0.1678
H -9.1703 0.5079 -1.7229
H -8.5706 -1.8983 -2.9642
H -6.7985 -3.6125 -3.1039
H -4.2455 -1.3124 -0.5297
H -4.4551 1.1408 0.8085
C -4.4972 -3.6163 -1.8796
C -3.7577 -4.5738 -1.9213
C -2.9547 -5.7256 -1.9215
C -3.3863 -6.9098 -2.5407
C -2.5936 -8.0389 -2.4631
C -1.3935 -7.9797 -1.7694
N -0.9778 -6.8483 -1.1937
C -1.719 -5.745 -1.2668
H -4.3314 -6.9287 -3.0603
H -2.9028 -8.9619 -2.9261
H -0.7458 -8.847 -1.6696
H -1.3288 -4.8515 -0.7836
C -1.9265 3.216 -4.6292
C -2.9322 3.6473 -4.1123
C -4.0812 4.2925 -3.6081
C -5.3322 4.0502 -4.14
C -6.4335 4.8295 -3.7641
C -6.3009 5.8771 -2.8865
C -5.0501 6.1463 -2.3018
C -4.8126 7.2203 -1.4146
C -3.5675 7.4108 -0.886
N -2.5398 6.5591 -1.1344
C -2.7238 5.5511 -1.9677
C -3.9386 5.3175 -2.6252
H -5.4549 3.2709 -4.8764
H -7.3963 4.6167 -4.2033
H -7.1438 6.5032 -2.6401
H -5.6179 7.894 -1.169
H -3.3471 8.2496 -0.2349
H -1.8914 4.8726 -2.1394
C -0.7933 2.7814 -5.3534
C -0.3574 3.6029 -6.4097
C 0.6853 3.2271 -7.2267
C 1.299 2.0076 -6.9748
N 2.3138 1.387 -7.654
C 2.5796 0.1826 -7.0681
C 3.5013 -0.7931 -7.4299
C 3.5644 -1.9371 -6.6679
C 2.7276 -2.1144 -5.5505
C 1.8072 -1.1336 -5.1807
C 1.7285 0.0161 -5.9454
C 0.895 1.1884 -5.8925
C -0.1584 1.5752 -5.0779
H -0.8733 4.5336 -6.5907
H 0.9998 3.8511 -8.0488
H 2.7498 1.7352 -8.4916
H 4.1388 -0.6617 -8.2907
H 4.2596 -2.7212 -6.9262
H 1.1651 -1.2809 -4.328
H -0.4946 0.9497 -4.2673
C 2.7845 -3.3185 -4.8292
C 2.7905 -4.3732 -4.2365
C 2.7231 -5.5947 -3.5487
C 3.4224 -6.7355 -3.9717
C 3.2742 -7.9152 -3.267
C 2.4439 -7.946 -2.1551
N 1.7895 -6.856 -1.7481
C 1.9144 -5.7096 -2.4135
H 4.0598 -6.6826 -4.8404
H 3.7945 -8.8083 -3.5732
H 2.2971 -8.8506 -1.5716
H 1.3526 -4.8535 -2.0402

