%chk=_s_4b3_a.chk
%mem=60000mb
%nprocshared=32

#P PBE1PBE/Def2SVP SP  SCF=(YQC,MaxCycle=900) int=(Grid=Superfinegrid) EmpiricalDispersion=GD3BJ SCRF=(PCM,Solvent=DiMethylSulfoxide)

_s_4b3_a

4 1
Pd -0.1196 7.0476 -0.0679
Pd 0.0284 -6.7446 -0.001
C 4.7412 2.9522 0.0558
C 4.8074 4.1291 0.3314
C 5.0775 5.4623 0.6912
C 6.3865 5.7974 0.9994
C 6.7355 7.0959 1.3777
C 5.7834 8.0812 1.4582
C 4.4428 7.7868 1.1543
C 3.4235 8.7626 1.2188
C 2.1419 8.4259 0.9011
N 1.7933 7.1685 0.5215
C 2.7154 6.2269 0.4589
C 4.0674 6.4678 0.7622
H 7.1501 5.037 0.9429
H 7.7661 7.3177 1.6085
H 6.0482 9.0846 1.7519
H 3.6711 9.769 1.5163
H 1.3414 9.163 0.948
H 2.389 5.2368 0.1548
C 4.6758 1.5692 -0.2006
C 3.568 0.9926 -0.8312
C 3.5079 -0.3723 -1.0046
C 4.5539 -1.1884 -0.5548
C 5.6829 -0.6087 0.0334
C 5.7411 0.7564 0.2094
H 2.7615 1.6221 -1.172
H 2.6534 -0.8254 -1.4816
H 6.4968 -1.2357 0.3644
H 6.603 1.206 0.6785
C 4.4127 -2.5871 -0.6363
C 4.228 -3.7826 -0.6513
C 3.8304 -5.1329 -0.6038
C 4.7054 -6.224 -0.6824
C 4.1839 -7.5033 -0.5935
C 2.8178 -7.6809 -0.4197
N 1.9878 -6.6386 -0.3445
C 2.469 -5.4006 -0.4396
H 5.7646 -6.0625 -0.8093
H 4.8312 -8.3634 -0.6529
H 2.3707 -8.6661 -0.3372
H 1.7588 -4.5751 -0.3789
C -0.1984 2.911 4.7659
C -0.4943 4.0826 4.8368
C -0.8783 5.4076 5.1143
C -1.2017 5.7268 6.4235
C -1.6034 7.016 6.7805
C -1.6919 8.0079 5.836
C -1.3733 7.7297 4.4954
C -1.4452 8.713 3.484
C -1.1134 8.392 2.2019
N -0.7126 7.1434 1.8453
C -0.6416 6.1953 2.76
C -0.9579 6.4202 4.1118
H -1.1388 4.961 7.1813
H -1.8455 7.2254 7.8111
H -2.0033 9.0044 6.1068
H -1.7597 9.7127 3.7379
H -1.1658 9.1355 1.4076
H -0.32 5.2127 2.4277
C 0.0825 1.533 4.6945
C -0.3153 0.7082 5.7552
C -0.1148 -0.6533 5.6913
C 0.486 -1.2172 4.561
C 0.9236 -0.3884 3.5197
C 0.7257 0.9728 3.5855
H -0.7941 1.1454 6.6182
H -0.4363 -1.2898 6.5016
H 1.4107 -0.8291 2.6645
H 1.057 1.6121 2.7828
C 0.5924 -2.6135 4.4129
C 0.6285 -3.8075 4.2213
C 0.6042 -5.1554 3.8137
C 0.702 -6.2519 4.6799
C 0.635 -7.5283 4.1481
C 0.4638 -7.6979 2.7805
N 0.3704 -6.6505 1.9589
C 0.4444 -5.415 2.4502
H 0.8264 -6.0968 5.7403
H 0.7094 -8.3924 4.7884
H 0.3981 -8.6809 2.3257
H 0.3693 -4.5848 1.7467
C -4.8827 2.8283 -0.2238
C -4.9691 3.9998 -0.516
C -5.2648 5.3219 -0.8962
C -6.5741 5.6182 -1.2404
C -6.9494 6.9038 -1.6371
C -6.0234 7.915 -1.6995
C -4.6833 7.66 -1.3601
C -3.6905 8.6636 -1.4056
C -2.4077 8.3641 -1.0571
N -2.0327 7.1183 -0.6645
C -2.9299 6.1522 -0.6162
C -4.281 6.3543 -0.9505
H -7.3176 4.8372 -1.1973
H -7.9795 7.0951 -1.8958
H -6.3085 8.9089 -2.0062
H -3.959 9.6615 -1.7137
H -1.6275 9.1235 -1.0889
H -2.5832 5.1729 -0.2996
C -4.7942 1.4504 0.0532
C -3.7002 0.9084 0.7363
C -3.6165 -0.4523 0.9322
C -4.6249 -1.2983 0.4525
C -5.7416 -0.7531 -0.1895
C -5.8233 0.6077 -0.3878
H -2.923 1.561 1.1007
H -2.7727 -0.879 1.4507
H -6.5269 -1.4033 -0.5439
H -6.6754 1.0308 -0.8978
C -4.4553 -2.6924 0.5572
C -4.2454 -3.8833 0.5915
C -3.815 -5.2242 0.5646
C -4.6638 -6.3355 0.6453
C -4.1101 -7.6024 0.575
C -2.7383 -7.748 0.4161
N -1.9333 -6.6865 0.339
C -2.4458 -5.4598 0.4178
H -5.728 -6.199 0.7593
H -4.7367 -8.4776 0.6367
H -2.2666 -8.7228 0.3474
H -1.7554 -4.6176 0.3572
C 0.104 2.8669 -4.8579
C 0.3777 4.0433 -4.9376
C 0.7363 5.3734 -5.2246
C 1.076 5.6841 -6.5317
C 1.4516 6.9786 -6.8981
C 1.4971 7.9844 -5.9652
C 1.1619 7.7148 -4.627
C 1.1909 8.7122 -3.6273
C 0.8474 8.3981 -2.3465
N 0.4753 7.1434 -1.9804
C 0.4428 6.1829 -2.8842
C 0.7736 6.3998 -4.2339
H 1.0459 4.9076 -7.2806
H 1.7072 7.1812 -7.9268
H 1.7875 8.9852 -6.2435
H 1.4826 9.7167 -3.8888
H 0.8667 9.1522 -1.5608
H 0.1424 5.1962 -2.5442
C -0.1509 1.4842 -4.7774
C -0.8444 0.9276 -3.6974
C -1.0189 -0.4365 -3.6208
C -0.507 -1.2713 -4.6225
C 0.1457 -0.7122 -5.7261
C 0.3226 0.652 -5.8006
H -1.2339 1.5718 -2.9252
H -1.5454 -0.8742 -2.7876
H 0.5252 -1.3541 -6.5065
H 0.8407 1.0861 -6.6422
C -0.5902 -2.6676 -4.4594
C -0.606 -3.86 -4.2556
C -0.5583 -5.2031 -3.834
C -0.6183 -6.3095 -4.691
C -0.5279 -7.5791 -4.1464
C -0.3696 -7.7319 -2.7754
N -0.3125 -6.6751 -1.9625
C -0.4111 -5.4462 -2.4661
H -0.7319 -6.167 -5.7544
H -0.5734 -8.4505 -4.7794
H -0.2853 -8.7087 -2.3105
H -0.3668 -4.6082 -1.7694

