%chk=_s_4c1_d.chk
%mem=60000mb
%nprocshared=32

#P PBE1PBE/Def2SVP SP  SCF=(YQC,MaxCycle=900) int=(Grid=Superfinegrid) EmpiricalDispersion=GD3BJ SCRF=(PCM,Solvent=DiMethylSulfoxide)

_s_4c1_d

4 1
Pd -0.6718 5.9306 -0.3584
Pd 0.2689 -5.3161 -0.3546
C 4.7877 -1.8309 0.8482
C 4.5082 -2.6004 1.7401
C 4.2567 -3.5637 2.738
C 5.0712 -3.6493 3.8517
C 4.9024 -4.6756 4.7886
C 3.9491 -5.649 4.616
C 3.0979 -5.6046 3.4972
C 2.1205 -6.5875 3.2207
C 1.3384 -6.4809 2.106
N 1.4311 -5.4231 1.2625
C 2.3306 -4.4841 1.4894
C 3.2233 -4.5326 2.5674
H 5.8563 -2.9224 3.9929
H 5.5532 -4.7083 5.6492
H 3.8488 -6.4562 5.3244
H 2.0081 -7.4258 3.8894
H 0.6006 -7.2341 1.849
H 2.3694 -3.6409 0.8029
C 5.3062 -0.9752 -0.1489
C 6.6434 -1.2062 -0.5252
C 7.2826 -0.3891 -1.4276
C 6.5695 0.6837 -1.9444
N 6.995 1.6682 -2.7955
C 5.9866 2.5672 -2.9792
C 5.9866 3.7566 -3.6938
C 4.8363 4.5097 -3.6897
C 3.6751 4.0992 -3.0086
C 3.6768 2.8949 -2.3055
C 4.8341 2.1323 -2.2757
C 5.2152 0.9162 -1.5995
C 4.5763 0.0733 -0.7006
H 7.1723 -2.0355 -0.081
H 8.3112 -0.5619 -1.7041
H 7.9391 1.7759 -3.1287
H 6.869 4.0955 -4.2139
H 4.8498 5.4625 -4.1931
H 2.7935 2.5402 -1.8021
H 3.5543 0.2471 -0.4078
C 2.52 5.0017 -3.0088
C 2.2943 5.906 -4.0564
C 1.2803 6.841 -3.9632
C 0.4742 6.8505 -2.8382
N 0.6389 5.9487 -1.866
C 1.6275 5.0554 -1.9366
H 2.9108 5.8763 -4.9397
H 1.1154 7.5563 -4.7524
H -0.3193 7.5809 -2.7032
H 1.7172 4.3793 -1.0909
C 0.299 2.9066 4.5326
C 1.1553 3.7246 4.2814
C 2.0993 4.7463 4.0524
C 3.1096 4.9854 4.9651
C 3.9793 6.0708 4.8068
C 3.8371 6.9522 3.7633
C 2.8225 6.7508 2.8103
C 2.5791 7.6312 1.7316
C 1.5658 7.3736 0.8526
N 0.7992 6.259 0.9476
C 0.9985 5.4122 1.9403
C 1.968 5.6173 2.93
H 3.2201 4.3337 5.8182
H 4.7603 6.2239 5.5361
H 4.4894 7.8059 3.6681
H 3.1911 8.5116 1.6178
H 1.3335 8.0452 0.0325
H 0.3772 4.5199 1.9798
C -0.681 2.0122 5.0175
C -1.2149 2.311 6.2859
C -2.1169 1.4722 6.8966
C -2.4725 0.3095 6.2271
N -3.2882 -0.7075 6.6451
C -3.2949 -1.692 5.7019
C -3.9143 -2.9333 5.7291
C -3.7304 -3.7679 4.652
C -2.9613 -3.3907 3.5353
C -2.3546 -2.1354 3.5075
C -2.5062 -1.2881 4.5941
C -1.9678 0.0052 4.9387
C -1.0711 0.8695 4.3257
H -0.8933 3.2119 6.7858
H -2.5143 1.6982 7.874
H -3.712 -0.7711 7.5563
H -4.4993 -3.247 6.5796
H -4.1597 -4.7555 4.6942
H -1.7873 -1.8075 2.653
H -0.6581 0.6443 3.3566
C -2.77 -4.3744 2.4655
C -3.7163 -5.3776 2.2119
C -3.445 -6.3753 1.2943
C -2.2428 -6.3514 0.6091
N -1.3644 -5.3616 0.7948
C -1.6074 -4.4055 1.6931
H -4.6603 -5.3754 2.7317
H -4.1559 -7.1645 1.1112
H -1.969 -7.1257 -0.1029
H -0.8295 -3.6562 1.8106
C -4.6649 -2.4648 -0.686
C -4.4093 -2.9475 -1.765
C -4.1086 -3.6365 -2.9584
C -4.9796 -3.6485 -4.0289
C -4.7176 -4.4357 -5.1578
C -3.6129 -5.2482 -5.2181
C -2.697 -5.2662 -4.15
C -1.5628 -6.1069 -4.106
C -0.73 -6.0777 -3.0237
N -0.9082 -5.2122 -1.9928
C -1.9545 -4.4051 -2.0064
C -2.916 -4.4188 -3.0273
H -5.8826 -3.059 -3.9875
H -5.4172 -4.4183 -5.9797
H -3.4396 -5.8837 -6.0722
H -1.371 -6.783 -4.9239
H 0.1206 -6.7456 -2.9518
H -2.064 -3.7035 -1.1833
C -4.9476 -1.8984 0.5765
C -5.6805 -2.6465 1.5139
C -5.9544 -2.1517 2.771
C -5.4928 -0.8804 3.0839
N -5.6144 -0.1602 4.2445
C -5.0308 1.0631 4.0813
C -4.9087 2.1303 4.9618
C -4.3055 3.2815 4.5071
C -3.8292 3.4084 3.1889
C -3.9119 2.3187 2.3246
C -4.4963 1.1486 2.7725
C -4.7764 -0.1093 2.1376
C -4.4929 -0.6201 0.8822
H -6.0393 -3.6237 1.2295
H -6.5181 -2.731 3.4852
H -6.1346 -0.4545 5.0543
H -5.2871 2.0699 5.9699
H -4.1887 4.1039 5.1942
H -3.5871 2.3839 1.3
H -3.9452 -0.0446 0.1545
C -3.3095 4.6909 2.7103
C -3.7298 5.9119 3.2562
C -3.2386 7.1039 2.7552
C -2.3472 7.0755 1.6957
N -1.9549 5.917 1.1608
C -2.4023 4.7617 1.6505
H -4.4548 5.9281 4.0538
H -3.553 8.0471 3.1718
H -1.9366 7.9828 1.2581
H -2.0131 3.8666 1.1698
C -0.2577 2.7009 -5.0467
C -1.391 3.1102 -4.9423
C -2.6579 3.7181 -4.8218
C -3.6266 3.5763 -5.7948
C -4.8329 4.2841 -5.7143
C -5.0724 5.1684 -4.692
C -4.1132 5.3431 -3.6774
C -4.2546 6.2664 -2.6178
C -3.2687 6.3896 -1.6803
N -2.1624 5.6023 -1.6815
C -2.0031 4.7213 -2.6535
C -2.9131 4.5783 -3.711
H -3.4442 2.927 -6.6373
H -5.5712 4.1466 -6.4896
H -5.9854 5.7417 -4.6591
H -5.1368 6.8842 -2.566
H -3.3389 7.1224 -0.8849
H -1.1227 4.0845 -2.6209
C 1.0665 2.2217 -5.1524
C 2.0185 2.988 -5.8469
C 3.3311 2.5803 -5.9503
C 3.687 1.3776 -5.3551
N 4.9047 0.7495 -5.2985
C 4.7719 -0.436 -4.6345
C 5.7117 -1.414 -4.3357
C 5.2826 -2.5505 -3.6877
C 3.9342 -2.7506 -3.3379
C 3.0045 -1.7459 -3.5978
C 3.4234 -0.5897 -4.2294
C 2.7299 0.5865 -4.6761
C 1.4166 1.0111 -4.5642
H 1.7018 3.9084 -6.3128
H 4.0563 3.1729 -6.4854
H 5.7412 1.0702 -5.757
H 6.7472 -1.2985 -4.6142
H 6.0129 -3.3018 -3.4341
H 1.9587 -1.8716 -3.3738
H 0.6795 0.4198 -4.0466
C 3.5003 -4.0259 -2.7642
C 4.1781 -5.2253 -3.0242
C 3.7185 -6.4147 -2.4883
C 2.5705 -6.4079 -1.7136
N 1.9111 -5.2719 -1.4751
C 2.3577 -4.1167 -1.9656
H 5.0477 -5.2292 -3.6613
H 4.2359 -7.3408 -2.6795
H 2.1609 -7.3151 -1.2749
H 1.7722 -3.2381 -1.7029

