%chk=_s_5a3_a.chk
%mem=60000mb
%nprocshared=32

#P PBE1PBE/Def2SVP SP  SCF=(YQC,MaxCycle=900) int=(Grid=Superfinegrid) EmpiricalDispersion=GD3BJ SCRF=(PCM,Solvent=DiMethylSulfoxide)

_s_5a3_a

4 1
Pd 0.0146 4.6545 0.1714
Pd -0.0143 -8.4643 -0.2583
C 7.0084 1.8022 -1.3977
C 6.6069 2.9368 -1.2767
C 6.0478 4.219 -1.1177
C 6.8044 5.3703 -1.2422
C 6.2233 6.6336 -1.0791
C 4.8892 6.769 -0.7915
C 4.0817 5.6194 -0.6561
C 2.7053 5.6868 -0.3619
N 1.9537 4.6142 -0.2362
C 2.4975 3.3812 -0.39
C 3.8204 3.2062 -0.6763
C 4.6595 4.3289 -0.8193
H 7.8571 5.292 -1.4682
H 6.8449 7.5097 -1.1835
H 4.4499 7.7461 -0.6676
H 2.2206 6.6508 -0.2288
H 1.82 2.537 -0.2725
H 4.2408 2.2209 -0.7963
C 7.4422 0.4679 -1.5313
C 8.7965 0.1821 -1.8285
C 9.2119 -1.1115 -1.9563
C 8.31 -2.1861 -1.7968
C 8.7169 -3.5322 -1.9239
C 7.8266 -4.5532 -1.7647
C 6.4684 -4.276 -1.4673
C 6.0424 -2.9708 -1.3377
C 6.9479 -1.9043 -1.4983
C 6.5396 -0.5639 -1.3706
H 9.4913 0.9996 -1.9516
H 10.2454 -1.3315 -2.1831
H 9.7526 -3.741 -2.1507
H 8.1449 -5.58 -1.8632
H 5.0092 -2.7567 -1.1113
H 5.5062 -0.35 -1.144
C 5.5777 -5.3558 -1.3095
C 4.8281 -6.2959 -1.1776
C 4.0426 -7.4557 -1.0444
C 4.6328 -8.72 -1.1922
C 3.8485 -9.8504 -1.0596
C 2.4983 -9.7043 -0.7843
N 1.9368 -8.4991 -0.6435
C 2.673 -7.3968 -0.7664
H 5.6872 -8.797 -1.4068
H 4.2757 -10.8341 -1.1681
H 1.8478 -10.5699 -0.673
H 2.1612 -6.4459 -0.6413
C 1.4429 1.5359 7.0814
C 1.3661 2.6857 6.7139
C 1.2571 3.9892 6.1934
C 1.4163 5.1117 6.9859
C 1.302 6.3972 6.4429
C 1.029 6.5834 5.1119
C 0.8594 5.4645 4.2685
C 0.5769 5.5843 2.8933
N 0.419 4.5403 2.1082
C 0.527 3.2865 2.6144
C 0.7979 3.0611 3.9329
C 0.9734 4.152 4.8072
H 1.6315 4.9934 8.0371
H 1.4326 7.2497 7.0919
H 0.9425 7.5772 4.7022
H 0.4805 6.5667 2.4378
H 0.3856 2.4681 1.9103
H 0.8812 2.0599 4.3233
C 1.5251 0.185 7.4751
C 1.8009 -0.1521 8.8222
C 1.8795 -1.4615 9.1986
C 1.6895 -2.5018 8.2631
C 1.7661 -3.8633 8.6294
C 1.5789 -4.8505 7.7069
C 1.3025 -4.5217 6.3558
C 1.2218 -3.2004 5.9692
C 1.4122 -2.1684 6.9082
C 1.3352 -0.8124 6.5403
H 1.9473 0.639 9.5425
H 2.0899 -1.7207 10.2265
H 1.977 -4.1114 9.6597
H 1.6389 -5.8894 7.9942
H 1.0114 -2.9471 4.9415
H 1.1246 -0.5593 5.5124
C 1.1151 -5.5677 5.431
C 0.9578 -6.4793 4.6519
C 0.7916 -7.6092 3.8298
C 0.8951 -8.8954 4.3808
C 0.73 -9.9959 3.5608
C 0.4664 -9.7989 2.2149
N 0.3679 -8.5728 1.6907
C 0.5231 -7.4986 2.4615
H 1.1014 -9.0122 5.4332
H 0.8043 -10.9954 3.9576
H 0.3301 -10.6397 1.5372
H 0.432 -6.5286 1.9791
C -6.9938 1.7363 1.5441
C -6.5866 2.8744 1.4985
C -6.0216 4.1617 1.4249
C -6.7734 5.3057 1.6241
C -6.1865 6.5745 1.5449
C -4.8515 6.7225 1.2681
C -4.0488 5.5807 1.0584
C -2.6718 5.6612 0.7706
N -1.9247 4.5958 0.5755
C -2.474 3.3577 0.6477
C -3.798 3.1702 0.9205
C -4.6325 4.2848 1.1359
H -7.8267 5.2174 1.8433
H -6.8044 7.4445 1.7061
H -4.4078 7.7036 1.209
H -2.1827 6.6296 0.7015
H -1.7999 2.5201 0.4758
H -4.2228 2.181 0.9752
C -7.4337 0.398 1.5893
C -8.7894 0.0994 1.8668
C -9.2106 -1.198 1.9092
C -8.3134 -2.2638 1.6797
C -8.7263 -3.6135 1.7181
C -7.8402 -4.6258 1.4928
C -6.4807 -4.3357 1.2148
C -6.0489 -3.0267 1.1708
C -6.9499 -1.9691 1.4006
C -6.5356 -0.6249 1.3614
H -9.4807 0.9101 2.0431
H -10.2452 -1.4278 2.1209
H -9.763 -3.8321 1.9304
H -8.1631 -5.6555 1.5238
H -5.0147 -2.8027 0.9592
H -5.5012 -0.4012 1.1495
C -5.5944 -5.4068 0.9877
C -4.8485 -6.3394 0.7959
C -4.0677 -7.4916 0.5886
C -4.6635 -8.7602 0.6534
C -3.8837 -9.883 0.4489
C -2.5325 -9.7251 0.1854
N -1.9657 -8.5158 0.1237
C -2.6974 -7.4207 0.3169
H -5.7185 -8.8464 0.8611
H -4.3152 -10.8698 0.4928
H -1.8854 -10.5845 0.0191
H -2.1814 -6.4658 0.2543
C -1.4336 2.0031 -6.9265
C -1.3514 3.1261 -6.4845
C -1.2366 4.3921 -5.8797
C -1.3931 5.5649 -6.5962
C -1.2735 6.8114 -5.9699
C -0.9979 6.9086 -4.63
C -0.8307 5.7359 -3.8625
C -0.5457 5.7639 -2.4828
N -0.3903 4.6699 -1.7685
C -0.5034 3.4526 -2.3561
C -0.7769 3.3155 -3.6862
C -0.95 4.4622 -4.4864
H -1.6105 5.5168 -7.6525
H -1.4023 7.7052 -6.561
H -0.9073 7.8729 -4.1559
H -0.4452 6.7138 -1.9637
H -0.3637 2.5891 -1.7077
H -0.8641 2.3425 -4.1415
C -1.5225 0.6812 -7.4074
C -1.8008 0.434 -8.7733
C -1.8859 -0.8477 -9.2343
C -1.7004 -1.9477 -8.3687
C -1.7837 -3.2821 -8.8229
C -1.6003 -4.3282 -7.967
C -1.3214 -4.0895 -6.5977
C -1.2343 -2.7967 -6.1258
C -1.4205 -1.7047 -6.9953
C -1.3368 -0.376 -6.5398
H -1.9437 1.2711 -9.4404
H -2.0983 -1.0384 -10.2766
H -1.9965 -3.4614 -9.8671
H -1.6654 -5.3458 -8.3214
H -1.022 -2.6119 -5.084
H -1.1244 -0.1915 -5.4978
C -1.1378 -5.1945 -5.7435
C -0.983 -6.1559 -5.026
C -0.8203 -7.338 -4.2802
C -0.9297 -8.5847 -4.9145
C -0.7676 -9.7375 -4.1692
C -0.5013 -9.6305 -2.8136
N -0.3972 -8.4421 -2.21
C -0.5494 -7.3188 -2.9081
H -1.138 -8.6311 -5.972
H -0.8463 -10.7084 -4.6308
H -0.3671 -10.5147 -2.193
H -0.4538 -6.3831 -2.3629

