%chk=_s_4d2_b.chk
%mem=60000mb
%nprocshared=32

#P PBE1PBE/Def2SVP SP  SCF=(YQC,MaxCycle=900) int=(Grid=Superfinegrid) EmpiricalDispersion=GD3BJ SCRF=(PCM,Solvent=DiMethylSulfoxide)

_s_4d2_b

4 1
Pd 0.2891 4.1653 -0.5062
Pd 1.042 -5.2258 0.9018
C 6.2887 -3.0265 -0.3568
C 6.2332 -4.2247 -0.1968
C 6.2123 -5.6206 0.0002
C 7.3718 -6.3585 -0.1474
C 7.3765 -7.7427 0.0627
C 6.2338 -8.4108 0.4253
C 5.0273 -7.7041 0.5879
C 3.8133 -8.326 0.9596
C 2.675 -7.5803 1.0931
N 2.677 -6.2476 0.8776
C 3.7872 -5.6272 0.533
C 5.009 -6.2952 0.3711
H 8.2874 -5.8608 -0.4282
H 8.3008 -8.2859 -0.0625
H 6.2471 -9.477 0.5889
H 3.7976 -9.3902 1.1323
H 1.7218 -8.0183 1.3773
H 3.7418 -4.5482 0.37
C 6.3996 -1.624 -0.4904
C 7.6691 -1.0367 -0.5107
C 7.7869 0.3377 -0.6007
C 6.6603 1.1396 -0.6684
C 5.3846 0.5697 -0.6536
C 5.2655 -0.8171 -0.5704
H 8.5486 -1.6592 -0.4505
H 8.7671 0.7898 -0.6112
H 6.7787 2.2111 -0.7002
H 4.294 -1.2829 -0.6031
C 4.1895 1.421 -0.6903
C 4.1609 2.6342 -1.3855
C 3.0228 3.4171 -1.3553
N 1.9228 3.0499 -0.6941
C 1.9193 1.882 -0.0354
C 3.0227 1.0573 -0.0052
H 5.0149 2.9632 -1.9549
H 2.985 4.366 -1.8804
H 0.9947 1.6278 0.4847
H 2.9977 0.1495 0.574
C -0.5444 1.9665 5.4927
C -0.2932 3.1058 5.1712
C 0.1177 4.4398 4.9844
C 0.197 5.267 6.0921
C 0.7288 6.556 5.9975
C 1.2177 7.0282 4.8046
C 1.1373 6.2312 3.6495
C 1.6359 6.6568 2.3971
C 1.4762 5.8649 1.2998
N 0.8117 4.6785 1.3553
C 0.3793 4.225 2.5148
C 0.5431 4.9366 3.7158
H -0.1392 4.8994 7.0496
H 0.775 7.1712 6.8831
H 1.6648 8.0077 4.7398
H 2.1354 7.6097 2.3238
H 1.8816 6.1483 0.3259
H -0.1367 3.2708 2.5128
C -0.7131 0.6191 5.8781
C -1.2917 0.3006 7.1105
C -1.3568 -1.0208 7.5138
C -0.8472 -2.0313 6.7152
C -0.268 -1.7272 5.4816
C -0.2186 -0.3984 5.0649
H -1.6762 1.0853 7.7438
H -1.7977 -1.2657 8.4683
H -0.8691 -3.0489 7.0719
H 0.1976 -0.1406 4.1046
C 0.2897 -2.7681 4.6133
C 1.396 -2.4924 3.7983
C 1.8034 -3.4219 2.8669
N 1.1959 -4.6059 2.74
C 0.2115 -4.9345 3.5807
C -0.268 -4.0476 4.5238
H 1.9262 -1.5589 3.8963
H 2.6527 -3.2401 2.2112
H -0.194 -5.9371 3.478
H -1.0979 -4.3307 5.1506
C -5.0824 1.797 0.2514
C -5.0131 3.0024 0.3164
C -4.992 4.4096 0.3603
C -6.1656 5.1121 0.5611
C -6.1755 6.5114 0.5729
C -5.0228 7.2281 0.3702
C -3.8048 6.5558 0.1588
C -2.5871 7.2321 -0.0745
C -1.4409 6.5196 -0.2753
N -1.4207 5.1667 -0.2404
C -2.5384 4.4971 -0.028
C -3.7746 5.1308 0.1666
H -7.0884 4.5722 0.7091
H -7.1096 7.0269 0.7364
H -5.0364 8.3067 0.3672
H -2.5749 8.3099 -0.097
H -0.4929 7.0098 -0.4684
H -2.4682 3.4105 -0.0107
C -5.1453 0.3918 0.1336
C -6.3315 -0.2229 -0.2788
C -6.3755 -1.5977 -0.4208
C -5.2573 -2.3696 -0.1581
C -4.0646 -1.7682 0.2546
C -4.019 -0.383 0.4025
H -7.2029 0.3787 -0.4868
H -7.2901 -2.0721 -0.7423
H -5.3067 -3.4362 -0.3071
H -3.129 0.1025 0.77
C -2.8679 -2.5768 0.4967
C -2.9464 -3.8789 1.0004
C -1.7978 -4.6179 1.1561
N -0.5926 -4.1201 0.8575
C -0.4855 -2.8606 0.4171
C -1.5918 -2.073 0.2149
H -3.8959 -4.3074 1.2764
H -1.8063 -5.6368 1.5238
H 0.5266 -2.5151 0.2262
H -1.4756 -1.0795 -0.1855
C -2.6782 -0.0495 -4.4747
C -2.4677 1.129 -4.6511
C -2.2478 2.4492 -5.0915
C -2.7854 2.8161 -6.3145
C -2.5313 4.0709 -6.8739
C -1.7215 4.9731 -6.2303
C -1.1701 4.6507 -4.9782
C -0.3264 5.5398 -4.2746
C 0.1428 5.1959 -3.0429
N -0.1926 4.0216 -2.4415
C -0.9429 3.1493 -3.0839
C -1.4498 3.3893 -4.374
H -3.3987 2.1095 -6.8525
H -2.9657 4.3181 -7.8304
H -1.5011 5.9319 -6.6724
H -0.0669 6.4865 -4.7209
H 0.8107 5.8577 -2.4855
H -1.171 2.2215 -2.5712
C -2.8596 -1.4435 -4.3448
C -3.9167 -2.0712 -5.0121
C -4.0399 -3.4473 -4.9588
C -3.1279 -4.2116 -4.2503
C -2.0729 -3.5974 -3.5728
C -1.95 -2.2097 -3.6201
H -4.6246 -1.4803 -5.5726
H -4.8491 -3.9318 -5.4838
H -3.2194 -5.2862 -4.2563
H -1.1531 -1.7126 -3.0904
C -1.1089 -4.3715 -2.7864
C -1.4825 -5.5191 -2.0792
C -0.5958 -6.0836 -1.1848
N 0.6189 -5.5689 -0.9776
C 1.0414 -4.5513 -1.736
C 0.2189 -3.9414 -2.658
H -2.4742 -5.929 -2.1801
H -0.8496 -6.9598 -0.5957
H 2.0755 -4.2423 -1.5973
H 0.5925 -3.1288 -3.26

