%nprocshared=48
%mem=120GB
%chk=m2_lb_xray_opt_FINAL.chk
# SP HSEH1PBE/def2svp scrf=(solvent=dmso)

m2_lb

4 1
 C                 -9.41172400    1.88472500   -2.12776700
 C                 -9.33597000    2.60478500   -3.29071200
 C                 -8.27916400    2.37440900   -4.20645300
 C                 -8.10995500    3.13138000   -5.38930200
 C                 -7.03572700    2.87526600   -6.21080600
 C                 -6.11287100    1.84819300   -5.90686000
 C                 -6.25272600    1.06017500   -4.77998600
 C                 -7.34178000    1.34118300   -3.89334100
 C                 -7.50056200    0.66812300   -2.66427500
 C                 -5.29073300   -0.03330600   -4.49766800
 C                 -3.93617200    0.25605800   -4.28004900
 C                 -3.02554400   -0.75601200   -4.00198200
 C                 -3.44840700   -2.09707500   -3.95231900
 C                 -4.80255700   -2.39272700   -4.19948200
 C                 -5.71007400   -1.37287900   -4.45896100
 C                 -2.52841900   -3.13477800   -3.62331600
 C                 -1.75006300   -4.01006400   -3.28829600
 C                 -0.84729400   -5.02835600   -2.83710000
 C                 -0.89057700   -6.32163800   -3.38806800
 C                 -0.00474600   -7.27704700   -2.90175000
 C                  0.88736100   -6.92494900   -1.89466600
 C                  0.85659000   -5.60662800   -1.40558500
 C                  1.76340400   -5.18520700   -0.37822800
 C                  2.54271800   -4.78360600    0.46767700
 C                  3.46288800   -4.26054100    1.42223300
 C                  4.81564800   -4.65015200    1.40164300
 C                  5.72251500   -4.09251100    2.29484500
 C                  5.30391800   -3.14515900    3.24287600
 C                  3.95079200   -2.77997500    3.28030100
 C                  3.04057000   -3.32026900    2.37999600
 C                  6.26691600   -2.54711100    4.20016600
 C                  6.13422800   -2.75811400    5.55954700
 C                  7.05943600   -2.22244500    6.48500500
 C                  8.12897500   -1.46561800    6.06364100
 C                  8.29112700   -1.19476100    4.68477500
 C                  9.34364700   -0.39354600    4.17666500
 C                  9.41364500   -0.11184400    2.83793400
 C                  7.50355400   -1.36624000    2.39387400
 C                  7.35113400   -1.72773800    3.74863400
 C                 -9.42349700   -2.12207000   -1.87829600
 C                 -9.35847800   -3.28852300   -2.59377000
 C                 -8.30760400   -4.21081000   -2.36317200
 C                 -8.15033700   -5.39882500   -3.11464400
 C                 -7.08112100   -6.22690200   -2.85910600
 C                 -6.15151500   -5.92471000   -1.83747300
 C                 -6.27936200   -4.79263900   -1.05494900
 C                 -7.36324000   -3.89929600   -1.33581100
 C                 -7.51044900   -2.66595000   -0.66795700
 C                 -5.31033000   -4.50984300    0.03216500
 C                 -3.95523400   -4.30615600   -0.26441400
 C                 -3.03845500   -4.02369500    0.74100400
 C                 -3.45583900   -3.95566100    2.08287500
 C                 -4.81060900   -4.18982800    2.38633300
 C                 -5.72391600   -4.45415300    1.37294400
 C                 -2.53064000   -3.62125700    3.11426300
 C                 -1.74926800   -3.28218000    3.98527800
 C                 -0.84511500   -2.82672200    5.00052000
 C                 -0.88588000   -3.37577500    6.29476600
 C                 -0.00013200   -2.88604400    7.24846600
 C                  0.88963800   -1.87793100    6.89348400
 C                  0.85697500   -1.39153200    5.57419400
 C                  1.76374700   -0.36444900    5.15172400
 C                  2.54558700    0.48129400    4.75468900
 C                  3.47093500    1.43531000    4.23961100
 C                  3.05526400    2.40532500    3.30888900
 C                  3.97208700    3.30365100    2.77618400
 C                  5.32552300    3.25168000    3.13880900
 C                  5.73695900    2.29228700    4.07788400
 C                  4.82362300    1.40147500    4.62838600
 C                  6.29676700    4.20329100    2.54523300
 C                  6.17427200    5.56330500    2.75852800
 C                  7.10835800    6.48242500    2.22733500
 C                  8.17667600    6.05436800    1.47247900
 C                  8.32834700    4.67488500    1.19854700
 C                  9.37873300    4.16020800    0.39848800
 C                  9.43878100    2.82161100    0.11329700
 C                  7.52184900    2.39047600    1.36210300
 C                  7.37942800    3.74526400    1.72708200
 C                 -9.42507400   -1.87961800    2.12023600
 C                 -9.35812600   -2.59934900    3.28397300
 C                 -8.30651800   -2.37088300    4.20604400
 C                 -8.14631500   -3.12697100    5.39073400
 C                 -7.07654600   -2.87268000    6.21852400
 C                 -6.14920500   -1.84796400    5.91919700
 C                 -6.28025000   -1.06119200    4.79046800
 C                 -7.36476100   -1.34032700    3.89769700
 C                 -7.51475800   -0.66701400    2.66770000
 C                 -5.31398200    0.02913500    4.50968100
 C                 -5.72869100    1.37017900    4.47252700
 C                 -4.81872800    2.38676000    4.20894600
 C                 -3.46664300    2.08618900    3.95619200
 C                 -3.04823500    0.74372400    4.00486900
 C                 -3.96140200   -0.26504400    4.28706200
 C                 -2.54430500    3.12057600    3.62315000
 C                 -1.76313900    3.99256800    3.28615600
 C                 -0.85683200    5.00750600    2.83442700
 C                 -0.89388700    6.30022600    3.38730800
 C                 -0.00415300    7.25230800    2.90161600
 C                  0.88582700    6.89738000    1.89363100
 C                  0.84928500    5.57967300    1.40333100
 C                  1.75587600    5.15593800    0.37664200
 C                  2.53668700    4.75541000   -0.46840200
 C                  3.45948800    4.23603400   -1.42244500
 C                  3.03866100    3.30864800   -2.39334600
 C                  3.95227900    2.77222300   -3.29257900
 C                  5.30767200    3.12729400   -3.24074400
 C                  5.72450700    4.06222000   -2.27961900
 C                  4.81441100    4.61694100   -1.38807300
 C                  6.27418700    2.53216300   -4.19600500
 C                  6.14398200    2.74292200   -5.55576800
 C                  7.07312000    2.21066300   -6.47923400
 C                  8.14439000    1.45733500   -6.05580100
 C                  8.30417400    1.18632100   -4.67670300
 C                  9.35838100    0.38849200   -4.16647600
 C                  9.42566600    0.10521700   -2.82786500
 C                  7.50923900    1.35174100   -2.38834600
 C                  7.35983800    1.71544400   -3.74270000
 C                 -9.41859400    2.12146500    1.88302900
 C                 -9.35157000    3.28489600    2.60316000
 C                 -8.30230600    4.20884500    2.37198200
 C                 -8.14225100    5.39365500    3.12785200
 C                 -7.07484000    6.22361300    2.87080500
 C                 -6.14978600    5.92633800    1.84353600
 C                 -6.28083700    4.79754400    1.05702700
 C                 -7.36269200    3.90241700    1.33887000
 C                 -7.51243400    2.67244100    0.66540600
 C                 -5.31691400    4.51969600   -0.03620400
 C                 -5.73503800    4.48413600   -1.37617300
 C                 -4.82709700    4.22440600   -2.39568500
 C                 -3.47364100    3.97472700   -2.09884800
 C                 -3.05180500    4.02247800   -0.75740700
 C                 -3.96305000    4.30018300    0.25429500
 C                 -2.55266800    3.64471800   -3.13544100
 C                 -1.77066200    3.30913900   -4.00722700
 C                 -0.85979800    2.85904400   -5.01880500
 C                 -0.88485200    3.42008100   -6.30827800
 C                  0.00984700    2.93640500   -7.25673600
 C                  0.89250400    1.92209200   -6.90162800
 C                  0.84418600    1.42382400   -5.58727800
 C                  1.74477400    0.39210000   -5.16305900
 C                  2.52291600   -0.45537400   -4.76238400
 C                  3.44436400   -1.41107100   -4.24362200
 C                  3.02340900   -2.38013900   -3.31440800
 C                  3.93613300   -3.28120100   -2.77958100
 C                  5.29075900   -3.23302900   -3.13819500
 C                  5.70789700   -2.27366600   -4.07483300
 C                  4.79846400   -1.38032500   -4.62788100
 C                  6.25555200   -4.19193800   -2.54597000
 C                  6.12245400   -5.55041600   -2.76284700
 C                  7.04811500   -6.47843500   -2.23274600
 C                  8.11879400   -6.06094600   -1.47534400
 C                  8.28186200   -4.68334500   -1.19860400
 C                  9.33644000   -4.17950700   -0.39715500
 C                  9.40832000   -2.84199400   -0.10967400
 C                  7.49566500   -2.39165700   -1.35869700
 C                  7.34125500   -3.74452200   -1.72599800
 H                -10.20917700    2.04963300   -1.40226100
 H                -10.08818200    3.36698100   -3.50001000
 H                 -8.82914700    3.91619400   -5.63116400
 H                 -6.89493500    3.46259800   -7.12057200
 H                 -5.28546200    1.65406700   -6.59296500
 H                 -6.78176300   -0.10035700   -2.37153800
 H                 -3.59403100    1.29325400   -4.29970700
 H                 -1.97922000   -0.50614000   -3.81290400
 H                 -5.13827500   -3.43174200   -4.18439200
 H                 -6.75615100   -1.62033900   -4.65845100
 H                 -1.60424100   -6.55821700   -4.17845300
 H                 -0.00993100   -8.29155500   -3.30535600
 H                  1.59566500   -7.64639300   -1.48491700
 H                  5.15100300   -5.39383100    0.67576800
 H                  6.76775000   -4.41249700    2.27188200
 H                  3.60911200   -2.04034300    4.00796500
 H                  1.99506100   -3.00563600    2.41162600
 H                  5.31030700   -3.37541000    5.92446800
 H                  6.92445400   -2.42737100    7.54911400
 H                  8.84982600   -1.06318400    6.77774500
 H                 10.09830400    0.01443100    4.85103200
 H                 10.20882600    0.50898900    2.42369100
 H                  6.78286200   -1.72266600    1.65459600
 H                -10.21625500   -1.39142700   -2.04336400
 H                -10.11439300   -3.49555200   -3.35279600
 H                 -8.87450000   -5.63915300   -3.89536900
 H                 -6.94940500   -7.14043300   -3.44272400
 H                 -5.32830500   -6.61589700   -1.64348800
 H                 -6.78637900   -2.37424400    0.09587800
 H                 -3.61699000   -4.33985700   -1.30250800
 H                 -1.99175700   -3.84437800    0.48526900
 H                 -5.14203400   -4.16010900    3.42639100
 H                 -6.77047400   -4.64337500    1.62638500
 H                 -1.59764000   -4.16733200    6.53330300
 H                 -0.00335000   -3.28798900    8.26364500
 H                  1.59825000   -1.46583600    7.61326600
 H                  2.00988500    2.44752600    2.99494400
 H                  3.63532500    4.03998500    2.04288900
 H                  6.78209900    2.25878200    4.39725200
 H                  5.15353300    0.66671100    5.36571500
 H                  5.35225900    5.93355800    3.37519500
 H                  6.98169000    7.54704000    2.43485900
 H                  8.90454400    6.76373400    1.07428200
 H                 10.13954900    4.82979000   -0.00586500
 H                 10.23165800    2.40236000   -0.50732500
 H                  6.79457400    1.65590100    1.71471000
 H                -10.21864100   -2.04337700    1.39006900
 H                -10.11369700   -3.35925800    3.48922400
 H                 -8.86866200   -3.91010000    5.62870700
 H                 -6.94272300   -3.45969300    7.12954400
 H                 -5.32512800   -1.65527200    6.60981100
 H                 -6.79296100    0.10033100    2.37941800
 H                 -6.77330800    1.62112300    4.67509700
 H                 -5.15097300    3.42689200    4.19433400
 H                 -2.00357700    0.49036200    3.81093200
 H                 -3.62263400   -1.30335300    4.30569500
 H                 -1.60574500    6.53891400    4.17871200
 H                 -0.00445000    8.26628800    3.30657900
 H                  1.59744200    7.61597600    1.48466100
 H                  1.99159900    3.00055200   -2.43599000
 H                  3.61150500    2.04174900   -4.02975600
 H                  6.77138700    4.37542200   -2.24580200
 H                  5.14848500    5.35185100   -0.65270800
 H                  5.31940100    3.35830400   -5.92240100
 H                  6.94010100    2.41590500   -7.54353200
 H                  8.86817400    1.05757300   -6.76845400
 H                 10.11598700   -0.01639600   -4.83942400
 H                 10.22158100   -0.51357700   -2.41177000
 H                  6.78465600    1.70322200   -1.65057900
 H                -10.20967700    1.38942500    2.04920000
 H                -10.10470600    3.48836100    3.36586800
 H                 -8.86302400    5.63015200    3.91286700
 H                 -6.94124100    7.13482700    3.45760000
 H                 -5.32770900    6.61859000    1.64846300
 H                 -6.79219300    2.38574100   -0.10402500
 H                 -6.78106200    4.68411300   -1.62349400
 H                 -5.16189700    4.20986100   -3.43503100
 H                 -2.00580200    3.83174900   -0.50728800
 H                 -3.62158800    4.31845300    1.29178000
 H                 -1.59081800    4.21679400   -6.54693400
 H                  0.01939200    3.34813100   -8.26794000
 H                  1.60775700    1.51459900   -7.61744500
 H                  1.97696700   -2.42072700   -3.00398600
 H                  3.59521100   -4.01751500   -2.04824200
 H                  6.75391500   -2.24282900   -4.39144400
 H                  5.13244900   -0.64659400   -5.36439600
 H                  5.29848400   -5.91291900   -3.38152500
 H                  6.91245800   -7.54133400   -2.44326800
 H                  8.83988400   -6.77722600   -1.07706100
 H                 10.09189900   -4.85615200    0.00567500
 H                 10.20459100   -2.43049300    0.51181600
 H                  6.77550800   -1.64985500   -1.71088200
 N                 -8.48249900    0.93515500   -1.81558900
 N                  0.00782100   -4.68139900   -1.86817600
 N                  8.48201900   -0.58508200    1.96012700
 N                 -8.48823900   -1.81222000   -0.93406900
 N                  0.00776400   -1.85687800    4.65073100
 N                  8.49840700    1.95065500    0.58199100
 N                 -8.49210500   -0.93211900    1.81314900
 N                 -0.00374400    4.65783500    1.86473500
 N                  8.48922400    0.57365500   -1.95271900
 N                 -8.48759400    1.81622700    0.93287000
 N                 -0.01362300    1.88330500   -4.66887900
 N                  8.47592000   -1.96200800   -0.57741200
 Pd                -8.52679900    0.00203000   -0.00129800
 Pd                 8.52293500   -0.00627800    0.00333900

