%chk=_s_5b4_b.chk
%mem=60000mb
%nprocshared=32

#P PBE1PBE/Def2SVP SP  SCF=(YQC,MaxCycle=900) int=(Grid=Superfinegrid) EmpiricalDispersion=GD3BJ SCRF=(PCM,Solvent=DiMethylSulfoxide)

_s_5b4_b

4 1
Pd 1.5349 6.5255 -0.6274
Pd -0.0001 -7.34 0.2262
C 5.7727 -2.0187 -0.4865
C 5.6368 -3.2164 -0.3814
C 5.531 -4.6154 -0.2653
C 6.6741 -5.3976 -0.2698
C 6.5992 -6.7901 -0.1591
C 5.3883 -7.4229 -0.044
C 4.1998 -6.6625 -0.0353
C 2.9284 -7.2577 0.0779
N 1.8149 -6.5591 0.0873
C 1.8599 -5.2052 -0.0125
C 3.043 -4.5306 -0.1281
C 4.2596 -5.2439 -0.1449
H 7.639 -4.9221 -0.3607
H 7.5123 -7.3651 -0.1661
H 5.3333 -8.4965 0.0401
H 2.8442 -8.338 0.1622
H 0.8941 -4.6978 0.0054
H 3.0664 -3.4555 -0.208
C 5.9431 -0.6263 -0.61
C 4.8385 0.2332 -0.6037
C 5.0207 1.5923 -0.7253
C 6.3083 2.1262 -0.8565
C 7.4128 1.266 -0.8639
C 7.2317 -0.0939 -0.7417
H 3.8468 -0.1783 -0.5031
H 4.1713 2.2568 -0.7224
H 8.4066 1.6757 -0.9654
H 8.0841 -0.7569 -0.7473
C 6.4912 3.517 -0.9782
C 6.6387 4.7142 -1.0796
C 6.7983 6.1073 -1.1936
C 8.0493 6.6689 -1.3714
C 8.2049 8.0549 -1.4826
C 7.1247 8.9004 -1.4179
C 5.8315 8.3764 -1.2373
C 4.6733 9.1842 -1.1596
C 3.4478 8.6058 -0.9826
N 3.306 7.2649 -0.8791
C 4.3577 6.4767 -0.9458
C 5.6593 6.9664 -1.1243
H 8.9168 6.029 -1.4251
H 9.1962 8.4591 -1.6211
H 7.2545 9.9678 -1.5039
H 4.7707 10.255 -1.2411
H 2.5322 9.1916 -0.9171
H 4.1948 5.4024 -0.8568
C -0.561 2.344 4.8515
C -0.5057 3.5513 4.7944
C -0.4675 4.9445 4.5989
C -1.232 5.8111 5.3602
C -1.2549 7.1828 5.0823
C -0.5533 7.7027 4.0243
C 0.2423 6.8528 3.2272
C 0.9046 7.295 2.0643
N 1.6444 6.4969 1.3267
C 1.8487 5.2091 1.7027
C 1.2076 4.668 2.7802
C 0.3315 5.4678 3.5434
H -1.8269 5.421 6.1719
H -1.8561 7.8307 5.7014
H -0.6042 8.7543 3.7914
H 0.8086 8.3249 1.7328
H 2.566 4.6428 1.1073
H 1.3462 3.6343 3.0539
C -0.6126 0.9378 4.8954
C -1.2029 0.2776 5.9786
C -1.2305 -1.0988 6.0161
C -0.6743 -1.8451 4.9692
C -0.1006 -1.1848 3.8771
C -0.0677 0.1912 3.8432
H -1.6261 0.8528 6.7887
H -1.6761 -1.6102 6.8562
H 0.3315 -1.7619 3.075
H 0.3824 0.7054 3.0086
C -0.6531 -3.2492 5.0638
C -0.5951 -4.4519 5.1885
C -0.4553 -5.8165 5.4983
C -0.5431 -6.2076 6.8247
C -0.3254 -7.5339 7.2049
C 0.0016 -8.4877 6.2726
C 0.0858 -8.1393 4.9137
C 0.428 -9.0733 3.9095
C 0.4572 -8.6834 2.6042
N 0.1384 -7.4187 2.2174
C -0.1506 -6.5114 3.1274
C -0.1709 -6.7984 4.5033
H -0.769 -5.4681 7.5775
H -0.4006 -7.8005 8.248
H 0.1954 -9.5066 6.5687
H 0.6615 -10.0884 4.1884
H 0.7403 -9.3782 1.8103
H -0.3883 -5.513 2.775
C -4.4548 1.6153 0.342
C -4.3314 2.8178 0.2885
C -4.138 4.2097 0.2134
C -5.197 5.094 0.3249
C -4.9938 6.4766 0.2435
C -3.7403 6.998 0.0498
C -2.6328 6.1307 -0.0678
C -1.3228 6.5991 -0.2646
N -0.2897 5.7885 -0.3685
C -0.4613 4.4464 -0.2902
C -1.693 3.8917 -0.1038
C -2.8241 4.7217 0.0149
H -6.1944 4.7098 0.4763
H -5.8439 7.135 0.3351
H -3.5896 8.0637 -0.0135
H -1.1165 7.6642 -0.3387
H 0.4391 3.8489 -0.3855
H -1.8172 2.8228 -0.0438
C -4.5764 0.2139 0.3967
C -5.8266 -0.3855 0.5884
C -5.9356 -1.7577 0.6348
C -4.7974 -2.5615 0.492
C -3.5472 -1.9615 0.303
C -3.4388 -0.5903 0.2549
H -6.7045 0.2335 0.6983
H -6.8997 -2.2216 0.7812
H -2.6731 -2.5828 0.1931
H -2.4779 -0.1244 0.107
C -4.9275 -3.9621 0.5358
C -5.051 -5.1657 0.5702
C -5.2879 -6.551 0.6156
C -6.5864 -7.0164 0.7325
C -6.8621 -8.3861 0.7787
C -5.8513 -9.3126 0.7101
C -4.5159 -8.8872 0.5922
C -3.4303 -9.788 0.5192
C -2.1569 -9.3108 0.4085
N -1.8855 -7.9849 0.3637
C -2.8731 -7.1109 0.4271
C -4.2178 -7.4938 0.543
H -7.3985 -6.3076 0.788
H -7.8872 -8.7116 0.8695
H -6.0663 -10.369 0.7459
H -3.6186 -10.8491 0.5527
H -1.3043 -9.98 0.3509
H -2.6057 -6.0557 0.3868
C -1.5641 1.8217 -5.1698
C -1.5444 3.0302 -5.2255
C -1.5143 4.4356 -5.1564
C -2.4448 5.2224 -5.8119
C -2.4545 6.6123 -5.6464
C -1.5683 7.2314 -4.8019
C -0.5988 6.4649 -4.121
C 0.2783 7.0167 -3.1657
N 1.1809 6.2964 -2.5374
C 1.3395 4.9825 -2.8363
C 0.5048 4.3404 -3.7057
C -0.5337 5.0591 -4.3338
H -3.1799 4.7557 -6.4497
H -3.1902 7.1959 -6.1782
H -1.6041 8.2983 -4.6498
H 0.2222 8.0708 -2.9096
H 2.181 4.479 -2.3584
H 0.6152 3.2883 -3.9146
C -1.5595 0.4169 -5.0772
C -2.2598 -0.3668 -6.0006
C -2.2221 -1.7406 -5.9083
C -1.4899 -2.3601 -4.8875
C -0.8076 -1.5758 -3.9508
C -0.8395 -0.203 -4.0481
H -2.8185 0.1105 -6.7918
H -2.7519 -2.3476 -6.6272
H -0.2408 -2.0558 -3.169
H -0.3065 0.407 -3.3359
C -1.4054 -3.7648 -4.8572
C -1.2946 -4.9701 -4.8774
C -1.1168 -6.351 -5.0757
C -1.3316 -6.872 -6.3415
C -1.088 -8.2186 -6.6217
C -0.61 -9.0633 -5.6502
C -0.3933 -8.5818 -4.3479
C 0.1049 -9.3998 -3.3083
C 0.2591 -8.8844 -2.0564
N -0.0764 -7.6013 -1.7533
C -0.5108 -6.799 -2.7032
C -0.6712 -7.219 -4.035
H -1.6792 -6.219 -7.1273
H -1.2649 -8.5877 -7.6203
H -0.3978 -10.0973 -5.8722
H 0.3565 -10.4272 -3.5181
H 0.6634 -9.4874 -1.24
H -0.7579 -5.7813 -2.419

