%chk=_s_3d1_a.chk
%mem=60000mb
%nprocshared=32

#P PBE1PBE/Def2SVP SP  SCF=(YQC,MaxCycle=900) int=(Grid=Superfinegrid) EmpiricalDispersion=GD3BJ SCRF=(PCM,Solvent=DiMethylSulfoxide)

_s_3d1_a

4 1
Pd -0.093 6.2308 0.2423
Pd -0.0156 -3.3658 0.1238
C 4.8787 2.4748 0.2542
C 4.4515 3.6035 0.3142
C 3.8778 4.8895 0.3555
C 4.6449 6.0612 0.4063
C 3.9981 7.2846 0.425
C 2.6118 7.3247 0.3883
N 1.886 6.2058 0.3402
C 2.4875 5.0173 0.3273
H 5.7219 6.0019 0.4297
H 4.5617 8.2027 0.4647
H 2.0631 8.2622 0.3966
H 1.8485 4.1351 0.2887
C 5.359 1.1529 0.1413
C 6.659 0.9124 -0.31
C 7.0977 -0.3902 -0.4589
C 6.2615 -1.4521 -0.1592
C 4.9632 -1.2247 0.3044
C 4.5163 0.0844 0.4517
H 7.3096 1.7402 -0.5457
H 8.0985 -0.5818 -0.8145
H 6.6147 -2.46 -0.3111
H 3.5312 0.2912 0.8389
C 4.0898 -2.3682 0.6148
C 4.6051 -3.538 1.1826
C 3.768 -4.6161 1.4151
C 2.4279 -4.5092 1.0872
N 1.9268 -3.384 0.569
C 2.7243 -2.3403 0.3346
H 5.6487 -3.596 1.4491
H 4.1502 -5.5276 1.8453
H 1.7342 -5.3326 1.2427
H 2.2507 -1.4697 -0.112
C -0.1092 2.3739 5.1361
C -0.1665 3.5113 4.7321
C -0.205 4.8089 4.1849
C -0.2492 5.9647 4.976
C -0.2652 7.2012 4.3544
C -0.232 7.2695 2.9691
N -0.1902 6.1655 2.2204
C -0.1803 4.965 2.7974
H -0.2697 5.8835 6.0516
H -0.3 8.1077 4.9367
H -0.2384 8.2181 2.4398
H -0.1471 4.0959 2.1404
C 0.0001 1.042 5.5887
C 0.4557 0.7728 6.8815
C 0.6005 -0.5392 7.2927
C 0.2925 -1.5824 6.4362
C -0.1752 -1.3262 5.1448
C -0.3185 -0.0076 4.7255
H 0.6978 1.586 7.548
H 0.9594 -0.7529 8.2879
H 0.4413 -2.598 6.768
H -0.7089 0.221 3.7465
C -0.4942 -2.45 4.2492
C -1.066 -3.6275 4.7422
C -1.3067 -4.6868 3.8837
C -0.9824 -4.554 2.5451
N -0.4599 -3.4214 2.0656
C -0.2181 -2.3954 2.8837
H -1.3292 -3.7058 5.7854
H -1.7404 -5.6039 4.2484
H -1.1443 -5.3621 1.8351
H 0.2312 -1.5173 2.4267
C -5.0033 2.3954 0.1252
C -4.5939 3.5319 0.0958
C -4.0411 4.8277 0.0887
C -4.8272 5.9876 0.0652
C -4.2006 7.2214 0.0792
C -2.8152 7.2833 0.1206
N -2.0712 6.1755 0.1426
C -2.6532 4.9774 0.1242
H -5.9031 5.9113 0.0372
H -4.779 8.131 0.061
H -2.282 8.2295 0.1371
H -1.9999 4.1051 0.1428
C -5.463 1.0637 0.2025
C -6.7612 0.7916 0.6409
C -7.1799 -0.521 0.7549
C -6.3256 -1.5618 0.4331
C -5.0289 -1.3026 -0.018
C -4.6021 0.0166 -0.1304
H -7.4259 1.6029 0.8939
H -8.1793 -0.7372 1.1005
H -6.6636 -2.5786 0.5582
H -3.6187 0.2486 -0.5074
C -4.1361 -2.4241 -0.3524
C -4.6306 -3.588 -0.9503
C -3.7755 -4.6468 -1.2052
C -2.4385 -4.5264 -0.8698
N -1.9572 -3.406 -0.3231
C -2.7722 -2.3812 -0.0664
H -5.6721 -3.6562 -1.2223
H -4.1416 -5.5537 -1.6584
H -1.7312 -5.3347 -1.0424
H -2.3141 -1.5144 0.4031
C -0.008 2.496 -4.745
C 0.0292 3.624 -4.313
C 0.0449 4.9082 -3.734
C 0.0701 6.0837 -4.4964
C 0.0643 7.3046 -3.8446
C 0.0288 7.3383 -2.4581
N 0.0051 6.2157 -1.7368
C 0.0162 5.0296 -2.3432
H 0.0929 6.0294 -5.5737
H 0.084 8.2257 -4.4044
H 0.0186 8.2735 -1.9056
H -0.003 4.1443 -1.7077
C -0.0939 1.1742 -5.2309
C -0.5412 0.93 -6.5316
C -0.6633 -0.3735 -6.9758
C -0.3409 -1.4326 -6.1445
C 0.1188 -1.2012 -4.8456
C 0.2393 0.1087 -4.393
H -0.7946 1.7555 -7.1785
H -1.0156 -0.5682 -7.9772
H -0.4721 -2.4419 -6.5019
H 0.623 0.3193 -3.4074
C 0.4535 -2.3417 -3.9772
C 1.045 -3.4974 -4.4978
C 1.3003 -4.5739 -3.6653
C 0.9711 -4.4795 -2.3246
N 0.43 -3.3674 -1.8185
C 0.1736 -2.3253 -2.6115
H 1.3118 -3.5455 -5.5418
H 1.749 -5.4748 -4.0516
H 1.1441 -5.3023 -1.6345
H -0.2905 -1.4662 -2.1339

