%chk=m3_la_FINAL.chk
%nprocshared=48
%mem=120GB
# SP PBE1PBE/def2svp empiricaldispersion=GD3BJ scrf=(solvent=dmso)

m3_la

6 1
 Pd                13.43440000   -2.85890000    0.94920000
 Pd                -4.79840000    8.15210000   -0.45400000
 Pd               -10.15080000   -3.76910000   -3.57280000
 C                 16.21980000   -0.89080000   -1.56560000
 C                 15.60910000   -1.56980000   -0.54760000
 N                 14.26580000   -1.79260000   -0.55340000
 C                 13.51620000   -1.34870000   -1.54700000
 C                 14.04760000   -0.65220000   -2.65270000
 C                 13.23190000   -0.17110000   -3.72700000
 C                 11.76750000   -0.38080000   -3.79840000
 C                 10.94630000    0.71240000   -4.11680000
 C                  9.58440000    0.55120000   -4.31410000
 C                  8.98410000   -0.71480000   -4.18450000
 C                  7.60230000   -0.85530000   -4.51970000
 C                  6.45800000   -0.87160000   -4.94220000
 C                  5.23850000   -0.82660000   -5.68860000
 C                  3.96380000   -0.98750000   -5.12360000
 C                  2.84470000   -0.90210000   -5.95960000
 C                  1.39910000   -0.97930000   -5.79240000
 C                  0.51670000   -1.13960000   -4.72060000
 C                 -0.86380000   -1.07410000   -4.97240000
 C                 -1.85440000   -1.07750000   -3.94760000
 C                 -2.82350000   -0.94900000   -3.21780000
 C                 -4.04400000   -0.71390000   -2.52600000
 C                 -5.18240000   -0.38310000   -3.28690000
 C                 -6.40350000   -0.15290000   -2.67120000
 C                 -6.54210000   -0.25250000   -1.27450000
 C                 -7.84010000    0.04400000   -0.63060000
 C                 -7.90020000    0.86930000    0.47890000
 C                 -9.13070000    1.28690000    1.02950000
 C                -10.32760000    0.89870000    0.47040000
 C                -10.32370000    0.01160000   -0.63070000
 C                -11.51060000   -0.46440000   -1.24450000
 C                -11.44630000   -1.40930000   -2.23250000
 N                -10.25780000   -1.94930000   -2.62950000
 C                 -9.13070000   -1.47030000   -2.12940000
 C                 -9.07950000   -0.45130000   -1.15580000
 C                 -5.39980000   -0.56020000   -0.51780000
 C                 -4.17190000   -0.78540000   -1.12790000
 C                 -1.34260000   -0.88240000   -6.29320000
 C                 -0.48190000   -0.73940000   -7.36890000
 C                  0.87520000   -0.77820000   -7.08590000
 O                  1.85680000   -0.59520000   -8.00420000
 C                  3.03540000   -0.65850000   -7.33400000
 C                  4.28130000   -0.49370000   -7.91980000
 C                  5.37790000   -0.57990000   -7.07780000
 C                  9.79500000   -1.80610000   -3.82690000
 C                 11.16530000   -1.64080000   -3.64720000
 C                 13.85380000    0.54260000   -4.73810000
 C                 15.24340000    0.78470000   -4.73850000
 C                 16.04100000    0.31750000   -3.72060000
 C                 15.45640000   -0.40560000   -2.65580000
 H                 17.29670000   -0.71930000   -1.53210000
 H                 16.16510000   -1.95520000    0.30840000
 H                 12.44440000   -1.54320000   -1.47910000
 H                 11.38720000    1.70670000   -4.21380000
 H                  8.96680000    1.40940000   -4.57790000
 H                  3.85520000   -1.16420000   -4.05250000
 H                  0.88360000   -1.26720000   -3.70140000
 H                 -5.09560000   -0.30320000   -4.37220000
 H                 -7.25810000    0.13890000   -3.28560000
 H                 -6.97140000    1.25010000    0.90430000
 H                 -9.12250000    1.95820000    1.89120000
 H                -11.27890000    1.25620000    0.86920000
 H                -12.48320000   -0.09270000   -0.91800000
 H                -12.34410000   -1.79380000   -2.71530000
 H                 -8.20460000   -1.93130000   -2.46840000
 H                 -5.47870000   -0.63980000    0.56900000
 H                 -3.30080000   -1.03560000   -0.52080000
 H                 -2.41960000   -0.81290000   -6.44920000
 H                 -0.84560000   -0.57440000   -8.38370000
 H                  4.38520000   -0.30100000   -8.98820000
 H                  6.38200000   -0.45080000   -7.48490000
 H                  9.35190000   -2.79920000   -3.73070000
 H                 11.77900000   -2.51990000   -3.43670000
 H                 13.25410000    0.90920000   -5.57350000
 H                 15.68430000    1.34380000   -5.56660000
 H                 17.11780000    0.49680000   -3.71810000
 C                 14.39460000   -5.87110000   -1.93790000
 C                 14.47330000   -4.86180000   -1.01620000
 N                 13.39910000   -4.49790000   -0.26010000
 C                 12.26180000   -5.16060000   -0.37470000
 C                 12.09110000   -6.24560000   -1.25790000
 C                 10.85220000   -6.95430000   -1.34730000
 C                  9.75890000   -6.67570000   -0.39050000
 C                  8.48670000   -6.29610000   -0.83920000
 C                  7.46820000   -6.02550000    0.06530000
 C                  7.69400000   -6.13810000    1.45000000
 C                  6.64110000   -5.88640000    2.37240000
 C                  5.71200000   -5.70100000    3.13910000
 C                  4.56120000   -5.52450000    3.95810000
 C                  3.30110000   -5.47290000    3.33990000
 C                  2.17190000   -5.34340000    4.14020000
 C                  0.74750000   -5.28350000    3.89360000
 C                 -0.05460000   -5.31790000    2.75720000
 C                 -1.44760000   -5.23350000    2.91590000
 C                 -2.27360000   -5.21290000    1.75310000
 C                 -2.90010000   -5.14570000    0.70890000
 C                 -3.52380000   -4.97350000   -0.56020000
 C                 -3.01740000   -5.63620000   -1.69470000
 C                 -3.50190000   -5.33750000   -2.95830000
 C                 -4.49730000   -4.36140000   -3.14590000
 C                 -4.79530000   -3.86860000   -4.50790000
 C                 -3.74750000   -3.71880000   -5.40310000
 C                 -3.92580000   -3.15170000   -6.68080000
 C                 -5.15070000   -2.66430000   -7.07170000
 C                 -6.25920000   -2.80400000   -6.20630000
 C                 -7.55090000   -2.34190000   -6.55830000
 C                 -8.61150000   -2.56750000   -5.72500000
 N                 -8.46150000   -3.26930000   -4.56780000
 C                 -7.26730000   -3.69410000   -4.19180000
 C                 -6.09680000   -3.45100000   -4.94060000
 C                 -5.05920000   -3.77210000   -2.00160000
 C                 -4.59030000   -4.07600000   -0.73040000
 C                 -2.00720000   -5.13090000    4.21110000
 C                 -1.21490000   -5.09380000    5.35290000
 C                  0.15850000   -5.16780000    5.16660000
 O                  1.09970000   -5.14800000    6.15030000
 C                  2.31050000   -5.25710000    5.53820000
 C                  3.54400000   -5.29450000    6.17560000
 C                  4.66700000   -5.43260000    5.36690000
 C                  8.96610000   -6.53220000    1.90080000
 C                  9.97980000   -6.79590000    0.99110000
 C                 10.72030000   -7.91400000   -2.33240000
 C                 11.79270000   -8.23050000   -3.19660000
 C                 13.01090000   -7.60010000   -3.08140000
 C                 13.18330000   -6.58690000   -2.10960000
 H                 15.26790000   -6.11570000   -2.54460000
 H                 15.39360000   -4.29800000   -0.86420000
 H                 11.42610000   -4.82120000    0.23820000
 H                  8.30160000   -6.19430000   -1.91100000
 H                  6.48370000   -5.72090000   -0.29440000
 H                  3.22010000   -5.54730000    2.25440000
 H                  0.38120000   -5.39900000    1.76020000
 H                 -2.21570000   -6.36740000   -1.57630000
 H                 -3.08070000   -5.85160000   -3.82450000
 H                 -2.74000000   -4.00340000   -5.09590000
 H                 -3.06530000   -3.07080000   -7.34760000
 H                 -5.28540000   -2.18220000   -8.04160000
 H                 -7.70510000   -1.81440000   -7.50080000
 H                 -9.62050000   -2.22490000   -5.95810000
 H                 -7.21710000   -4.28020000   -3.27280000
 H                 -5.81330000   -2.99030000   -2.09940000
 H                 -5.00920000   -3.56810000    0.13970000
 H                 -3.09040000   -5.07620000    4.30990000
 H                 -1.65180000   -5.00760000    6.34850000
 H                  3.62520000   -5.22760000    7.26110000
 H                  5.65580000   -5.48230000    5.82560000
 H                  9.14590000   -6.64210000    2.97110000
 H                 10.95770000   -7.11800000    1.35770000
 H                  9.78030000   -8.46290000   -2.42130000
 H                 11.65160000   -9.00580000   -3.95280000
 H                 13.84530000   -7.86510000   -3.73350000
 C                 14.15830000    0.07210000    3.95200000
 C                 14.09070000   -1.09580000    3.24180000
 N                 13.39200000   -1.17510000    2.07580000
 C                 12.71450000   -0.12990000    1.63440000
 C                 12.68340000    1.10630000    2.31020000
 C                 11.94980000    2.23100000    1.81080000
 C                 10.98830000    2.12490000    0.69190000
 C                 10.02090000    1.10760000    0.67710000
 C                  8.99690000    1.10850000   -0.25820000
 C                  8.90690000    2.13250000   -1.21600000
 C                  7.79300000    2.19120000   -2.10010000
 C                  6.81820000    2.24650000   -2.82880000
 C                  5.68760000    2.31390000   -3.69250000
 C                  4.39770000    2.08710000   -3.18600000
 C                  3.31310000    2.18200000   -4.05390000
 C                  1.87350000    2.06490000   -3.92490000
 C                  0.98390000    1.86870000   -2.86920000
 C                 -0.39140000    1.87450000   -3.14650000
 C                 -1.36370000    1.84220000   -2.10940000
 C                 -2.26140000    1.96450000   -1.29330000
 C                 -3.31820000    2.29440000   -0.40250000
 C                 -3.15630000    2.20830000    0.98950000
 C                 -4.13420000    2.69500000    1.84950000
 C                 -5.30160000    3.28030000    1.34310000
 C                 -6.26920000    3.94720000    2.24230000
 C                 -6.85540000    3.30970000    3.31890000
 C                 -7.79700000    3.97500000    4.13870000
 C                 -8.16370000    5.28150000    3.89930000
 C                 -7.55980000    5.99230000    2.83420000
 C                 -7.82870000    7.35580000    2.54290000
 C                 -7.14700000    8.00170000    1.54190000
 N                 -6.19250000    7.36130000    0.81270000
 C                 -5.93350000    6.08490000    1.04410000
 C                 -6.59950000    5.32290000    2.02010000
 C                 -5.50070000    3.28570000   -0.04980000
 C                 -4.53030000    2.79940000   -0.91200000
 C                 -0.85280000    2.04070000   -4.47530000
 C                  0.02000000    2.24870000   -5.53050000
 C                  1.37250000    2.26970000   -5.22420000
 O                  2.37330000    2.50400000   -6.11530000
 C                  3.53930000    2.46680000   -5.41410000
 C                  4.80130000    2.69070000   -5.94320000
 C                  5.87220000    2.61910000   -5.06130000
 C                  9.91320000    3.11500000   -1.24870000
 C                 10.93270000    3.10980000   -0.30700000
 C                 12.11470000    3.44300000    2.45970000
 C                 12.92040000    3.56780000    3.61170000
 C                 13.57270000    2.47880000    4.14250000
 C                 13.47640000    1.22680000    3.49260000
 H                 14.75270000    0.11470000    4.86590000
 H                 14.60550000   -2.00170000    3.56370000
 H                 12.18630000   -0.24350000    0.68720000
 H                 10.02470000    0.34050000    1.45350000
 H                  8.22610000    0.33690000   -0.22130000
 H                  4.25860000    1.85220000   -2.12930000
 H                  1.33880000    1.74930000   -1.84410000
 H                 -2.23050000    1.80030000    1.39500000
 H                 -3.95990000    2.67720000    2.92810000
 H                 -6.60820000    2.26620000    3.52680000
 H                 -8.24730000    3.43050000    4.97150000
 H                 -8.90200000    5.78080000    4.52950000
 H                 -8.57090000    7.90300000    3.12630000
 H                 -7.32210000    9.05100000    1.30200000
 H                 -5.13470000    5.63260000    0.45590000
 H                 -6.42910000    3.68790000   -0.46300000
 H                 -4.69440000    2.82350000   -1.99100000
 H                 -1.92770000    2.02340000   -4.65720000
 H                 -0.33530000    2.39960000   -6.54960000
 H                  4.94160000    2.91120000   -7.00180000
 H                  6.88460000    2.79230000   -5.42980000
 H                  9.86750000    3.90460000   -2.00080000
 H                 11.68950000    3.89700000   -0.33070000
 H                 11.57570000    4.31930000    2.09490000
 H                 13.00200000    4.54260000    4.09710000
 H                 14.17350000    2.56750000    5.04960000
 C                 12.57320000   -5.86950000    3.83640000
 C                 13.17380000   -5.07880000    2.89410000
 N                 12.59370000   -3.92320000    2.46100000
 C                 11.44910000   -3.51900000    2.98420000
 C                 10.76640000   -4.24310000    3.98440000
 C                  9.51900000   -3.79730000    4.52730000
 C                  8.96740000   -2.47010000    4.17810000
 C                  7.67440000   -2.34590000    3.64980000
 C                  7.17350000   -1.10230000    3.28190000
 C                  7.95360000    0.05730000    3.44220000
 C                  7.54170000    1.32070000    2.93240000
 C                  7.35620000    2.38330000    2.36310000
 C                  7.33530000    3.57700000    1.58680000
 C                  6.33350000    3.81410000    0.63200000
 C                  6.47640000    4.90540000   -0.22260000
 C                  5.72470000    5.44550000   -1.33890000
 C                  4.50300000    5.15980000   -1.94150000
 C                  4.09300000    5.93220000   -3.04140000
 C                  2.79360000    5.72450000   -3.58660000
 C                  1.63400000    5.58860000   -3.93610000
 C                  0.23620000    5.42390000   -4.14780000
 C                 -0.55910000    5.08120000   -3.04160000
 C                 -1.92190000    4.88900000   -3.17990000
 C                 -2.54020000    5.01750000   -4.43150000
 C                 -3.98270000    4.72840000   -4.57150000
 C                 -4.43400000    3.81410000   -5.50610000
 C                 -5.80010000    3.46730000   -5.59890000
 C                 -6.73730000    4.03820000   -4.76770000
 C                 -6.32920000    5.00170000   -3.81610000
 C                 -7.23210000    5.66630000   -2.94900000
 C                 -6.77240000    6.58500000   -2.04470000
 N                 -5.44650000    6.89910000   -1.94470000
 C                 -4.58500000    6.32340000   -2.76460000
 C                 -4.94940000    5.34860000   -3.71620000
 C                 -1.75060000    5.36580000   -5.53730000
 C                 -0.38270000    5.57370000   -5.40080000
 C                  4.92560000    6.96490000   -3.53470000
 C                  6.13830000    7.27410000   -2.92890000
 C                  6.50380000    6.51190000   -1.82730000
 O                  7.63140000    6.68400000   -1.08560000
 C                  7.61540000    5.72640000   -0.11860000
 C                  8.58980000    5.55030000    0.85390000
 C                  8.43110000    4.46730000    1.70670000
 C                  9.23160000   -0.06240000    4.02400000
 C                  9.72990000   -1.30740000    4.37780000
 C                  8.84910000   -4.63930000    5.39470000
 C                  9.39450000   -5.88190000    5.78540000
 C                 10.62140000   -6.29740000    5.31870000
 C                 11.32890000   -5.48820000    4.39880000
 H                 13.04980000   -6.80210000    4.14200000
 H                 14.12540000   -5.34660000    2.43380000
 H                 11.02420000   -2.59490000    2.58960000
 H                  7.07130000   -3.24330000    3.49000000
 H                  6.18000000   -1.02440000    2.83650000
 H                  5.48840000    3.13030000    0.53730000
 H                  3.85960000    4.36560000   -1.56340000
 H                 -0.09140000    4.93810000   -2.07020000
 H                 -2.50310000    4.57910000   -2.30970000
 H                 -3.71320000    3.32550000   -6.16550000
 H                 -6.10860000    2.72430000   -6.33760000
 H                 -7.79170000    3.76390000   -4.83480000
 H                 -8.30050000    5.45060000   -2.99930000
 H                 -7.45020000    7.10680000   -1.37070000
 H                 -3.54580000    6.63400000   -2.68680000
 H                 -2.21790000    5.47830000   -6.51820000
 H                  0.21920000    5.84070000   -6.27110000
 H                  4.58870000    7.54680000   -4.39440000
 H                  6.77100000    8.08460000   -3.29270000
 H                  9.45270000    6.21400000    0.92170000
 H                  9.18350000    4.26370000    2.46980000
 H                  9.84030000    0.83200000    4.17230000
 H                 10.72640000   -1.37910000    4.82080000
 H                  7.89320000   -4.31790000    5.81280000
 H                  8.83600000   -6.50970000    6.48300000
 H                 11.05190000   -7.24880000    5.63680000
 C                 -3.72700000   11.70930000    1.57030000
 C                 -4.19090000   10.78060000    0.67960000
 N                 -4.21430000    9.45320000    0.98540000
 C                 -3.82550000    9.03760000    2.17700000
 C                 -3.37510000    9.91740000    3.18400000
 C                 -2.97640000    9.45850000    4.48050000
 C                 -3.14920000    8.05260000    4.90170000
 C                 -2.10850000    7.37620000    5.55640000
 C                 -2.28100000    6.07980000    6.02240000
 C                 -3.50680000    5.41420000    5.84050000
 C                 -3.72310000    4.11620000    6.38030000
 C                 -3.96520000    3.04340000    6.90450000
 C                 -4.29460000    1.82790000    7.56740000
 C                 -5.21290000    0.93940000    6.98870000
 C                 -5.55490000   -0.21210000    7.69180000
 C                 -6.44150000   -1.33080000    7.45420000
 C                 -7.27890000   -1.71760000    6.41360000
 C                 -7.98490000   -2.92410000    6.53660000
 C                 -8.82570000   -3.35580000    5.47350000
 C                 -9.54340000   -3.71120000    4.55530000
 C                -10.42110000   -4.12150000    3.51520000
 C                -10.96700000   -5.41890000    3.51560000
 C                -11.87020000   -5.80230000    2.53510000
 C                -12.26260000   -4.91010000    1.52500000
 C                -13.31360000   -5.30370000    0.56340000
 C                -14.47840000   -5.88780000    1.03110000
 C                -15.54160000   -6.22370000    0.16700000
 C                -15.46170000   -5.96880000   -1.18220000
 C                -14.28430000   -5.39510000   -1.71420000
 C                -14.12970000   -5.12570000   -3.09610000
 C                -12.95260000   -4.61310000   -3.56700000
 N                -11.90050000   -4.36910000   -2.73610000
 C                -12.00930000   -4.59250000   -1.43880000
 C                -13.19400000   -5.07940000   -0.84540000
 C                -11.69870000   -3.62320000    1.51330000
 C                -10.78860000   -3.23360000    2.48660000
 C                 -7.85310000   -3.71390000    7.70460000
 C                 -7.02030000   -3.33550000    8.75040000
 C                 -6.32070000   -2.14670000    8.59480000
 O                 -5.43680000   -1.62330000    9.48760000
 C                 -4.97480000   -0.46250000    8.94930000
 C                 -4.05220000    0.39130000    9.53800000
 C                 -3.72070000    1.53920000    8.82930000
 C                 -4.54650000    6.08200000    5.16790000
 C                 -4.37070000    7.38260000    4.71890000
 C                 -2.44090000   10.38390000    5.35930000
 C                 -2.32250000   11.74820000    5.01900000
 C                 -2.75010000   12.21290000    3.79680000
 C                 -3.28230000   11.30420000    2.85320000
 H                 -3.69710000   12.76210000    1.28580000
 H                 -4.54780000   11.05950000   -0.31240000
 H                 -3.84900000    7.96170000    2.35520000
 H                 -1.14540000    7.87270000    5.69290000
 H                 -1.46300000    5.56820000    6.53270000
 H                 -5.64890000    1.15780000    6.01300000
 H                 -7.37880000   -1.11210000    5.51170000
 H                -10.67600000   -6.12270000    4.29720000
 H                -12.28000000   -6.81450000    2.54810000
 H                -14.59220000   -6.06030000    2.10320000
 H                -16.44480000   -6.67210000    0.58630000
 H                -16.29070000   -6.20580000   -1.85170000
 H                -14.94600000   -5.33180000   -3.79000000
 H                -12.80580000   -4.39020000   -4.62480000
 H                -11.12380000   -4.39730000   -0.83150000
 H                -12.00940000   -2.89640000    0.75910000
 H                -10.37620000   -2.22280000    2.47330000
 H                 -8.41570000   -4.64640000    7.77390000
 H                 -6.91000000   -3.94720000    9.64660000
 H                 -3.61290000    0.17040000   10.51140000
 H                 -3.00260000    2.24390000    9.25170000
 H                 -5.50720000    5.58230000    5.03320000
 H                 -5.21450000    7.90140000    4.25820000
 H                 -2.13700000   10.05740000    6.35600000
 H                 -1.90510000   12.44260000    5.75120000
 H                 -2.68270000   13.27210000    3.54130000
 C                 -1.37220000    9.76750000   -2.55260000
 C                 -2.67340000    9.51850000   -2.19870000
 N                 -2.98520000    8.52510000   -1.32610000
 C                 -2.02380000    7.78210000   -0.79300000
 C                 -0.65520000    7.99200000   -1.04270000
 C                  0.37100000    7.20690000   -0.41740000
 C                  0.05500000    6.15380000    0.57700000
 C                 -0.77140000    6.40510000    1.68500000
 C                 -1.08910000    5.39850000    2.58850000
 C                 -0.57780000    4.09920000    2.42040000
 C                 -0.94190000    3.04230000    3.31070000
 C                 -1.28970000    2.10620000    4.01040000
 C                 -1.71320000    0.99580000    4.80570000
 C                 -2.60830000    0.04880000    4.27790000
 C                 -3.00560000   -1.02000000    5.08130000
 C                 -3.88530000   -2.16640000    4.92560000
 C                 -4.65390000   -2.70390000    3.89080000
 C                 -5.35980000   -3.89500000    4.12610000
 C                 -6.04330000   -4.57810000    3.07350000
 C                 -6.55670000   -5.27240000    2.21320000
 C                 -7.05990000   -6.12620000    1.18480000
 C                 -8.42820000   -6.17650000    0.86620000
 C                 -8.87600000   -6.98570000   -0.17060000
 C                 -7.97680000   -7.75110000   -0.93210000
 C                 -8.43190000   -8.49540000   -2.13030000
 C                 -8.23280000   -9.85280000   -2.28390000
 C                 -8.68380000  -10.53220000   -3.43990000
 C                 -9.33700000   -9.86960000   -4.45480000
 C                 -9.54530000   -8.47330000   -4.35580000
 C                -10.19070000   -7.70110000   -5.35610000
 C                -10.34600000   -6.34730000   -5.19620000
 N                 -9.86650000   -5.71020000   -4.09490000
 C                 -9.24440000   -6.39490000   -3.15270000
 C                 -9.07560000   -7.78950000   -3.19570000
 C                 -6.62080000   -7.73760000   -0.58010000
 C                 -6.16830000   -6.94210000    0.46500000
 C                 -5.31550000   -4.50960000    5.40200000
 C                 -4.54510000   -3.99390000    6.43440000
 C                 -3.83470000   -2.83370000    6.16440000
 O                 -3.00230000   -2.20770000    7.03820000
 C                 -2.50050000   -1.12020000    6.39210000
 C                 -1.60700000   -0.20860000    6.93430000
 C                 -1.22290000    0.85270000    6.12500000
 C                  0.28090000    3.85240000    1.33390000
 C                  0.59360000    4.86480000    0.43510000
 C                  1.68010000    7.44870000   -0.78730000
 C                  2.01400000    8.45210000   -1.72420000
 C                  1.04380000    9.23000000   -2.31010000
 C                 -0.31580000    9.01360000   -1.98250000
 H                 -1.15140000   10.55550000   -3.27430000
 H                 -3.50770000   10.08970000   -2.60760000
 H                 -2.33720000    6.96620000   -0.13940000
 H                 -1.15720000    7.41250000    1.85740000
 H                 -1.73660000    5.61700000    3.43880000
 H                 -2.98570000    0.15440000    3.25950000
 H                 -4.68230000   -2.23430000    2.90600000
 H                 -9.13970000   -5.57540000    1.43490000
 H                 -9.94450000   -7.01830000   -0.39790000
 H                 -7.73870000  -10.41620000   -1.48950000
 H                 -8.51760000  -11.60900000   -3.51650000
 H                 -9.69340000  -10.40520000   -5.33680000
 H                -10.56890000   -8.18250000   -6.25940000
 H                -10.84290000   -5.72660000   -5.94250000
 H                 -8.85410000   -5.83070000   -2.30460000
 H                 -5.90690000   -8.33000000   -1.15690000
 H                 -5.10790000   -6.92690000    0.71990000
 H                 -5.88410000   -5.42700000    5.56100000
 H                 -4.49390000   -4.47720000    7.41020000
 H                 -1.23660000   -0.31720000    7.95370000
 H                 -0.53010000    1.60180000    6.51190000
 H                  0.69290000    2.85190000    1.18960000
 H                  1.25610000    4.64310000   -0.40500000
 H                  2.48200000    6.86500000   -0.33030000
 H                  3.06510000    8.60710000   -1.97640000
 H                  1.30460000   10.01150000   -3.02620000

 1 6 1.0 81 1.0 156 1.0 231 1.0
 2 185 1.0 260 1.0 306 1.0 381 1.0
 3 35 1.0 110 1.0 335 1.0 410 1.0
 4 5 2.0 52 1.5 53 1.0
 5 6 1.5 54 1.0
 6 7 2.0
 7 8 1.5 55 1.0
 8 9 1.5 52 1.5
 9 10 1.0 49 2.0
 10 11 1.5 48 1.5
 11 12 2.0 56 1.0
 12 13 1.5 57 1.0
 13 14 1.5 47 1.5
 14 15 3.0
 15 16 1.5
 16 17 1.5 46 1.5
 17 18 1.5 58 1.0
 18 19 1.0 44 1.5
 19 20 1.5 42 1.5
 20 21 1.5 59 1.0
 21 22 1.5 40 1.5
 22 23 3.0
 23 24 1.5
 24 25 1.5 39 1.5
 25 26 1.5 60 1.0
 26 27 1.5 61 1.0
 27 28 1.0 38 1.5
 28 29 2.0 37 1.5
 29 30 1.5 62 1.0
 30 31 2.0 63 1.0
 31 32 1.5 64 1.0
 32 33 1.5 37 1.5
 33 34 2.0 65 1.0
 34 35 1.5 66 1.0
 35 36 2.0
 36 37 1.5 67 1.0
 37
 38 39 1.5 68 1.0
 39 69 1.0
 40 41 2.0 70 1.0
 41 42 1.5 71 1.0
 42 43 1.0
 43 44 1.0
 44 45 1.5
 45 46 2.0 72 1.0
 46 73 1.0
 47 48 1.5 74 1.0
 48 75 1.0
 49 50 1.5 76 1.0
 50 51 2.0 77 1.0
 51 52 1.5 78 1.0
 52
 53
 54
 55
 56
 57
 58
 59
 60
 61
 62
 63
 64
 65
 66
 67
 68
 69
 70
 71
 72
 73
 74
 75
 76
 77
 78
 79 80 2.0 127 1.5 128 1.0
 80 81 1.5 129 1.0
 81 82 2.0
 82 83 1.5 130 1.0
 83 84 1.5 127 1.5
 84 85 1.0 124 2.0
 85 86 1.5 123 1.5
 86 87 1.5 131 1.0
 87 88 1.5 132 1.0
 88 89 1.5 122 1.5
 89 90 3.0
 90 91 1.5
 91 92 1.5 121 1.5
 92 93 1.5 133 1.0
 93 94 1.5 119 1.5
 94 95 1.5 117 1.5
 95 96 1.5 134 1.0
 96 97 1.5 115 1.5
 97 98 3.0
 98 99 1.5
 99 100 1.5 114 1.5
 100 101 2.0 135 1.0
 101 102 1.5 136 1.0
 102 103 1.0 113 1.5
 103 104 1.5 112 1.5
 104 105 1.5 137 1.0
 105 106 2.0 138 1.0
 106 107 1.5 139 1.0
 107 108 1.5 112 1.5
 108 109 2.0 140 1.0
 109 110 1.5 141 1.0
 110 111 2.0
 111 112 1.5 142 1.0
 112
 113 114 1.5 143 1.0
 114 144 1.0
 115 116 1.5 145 1.0
 116 117 1.5 146 1.0
 117 118 1.0
 118 119 1.0
 119 120 1.5
 120 121 1.5 147 1.0
 121 148 1.0
 122 123 1.5 149 1.0
 123 150 1.0
 124 125 1.5 151 1.0
 125 126 2.0 152 1.0
 126 127 1.5 153 1.0
 127
 128
 129
 130
 131
 132
 133
 134
 135
 136
 137
 138
 139
 140
 141
 142
 143
 144
 145
 146
 147
 148
 149
 150
 151
 152
 153
 154 155 2.0 202 1.5 203 1.0
 155 156 1.5 204 1.0
 156 157 2.0
 157 158 1.5 205 1.0
 158 159 1.5 202 1.5
 159 160 1.0 199 2.0
 160 161 1.5 198 1.5
 161 162 1.5 206 1.0
 162 163 1.5 207 1.0
 163 164 1.5 197 1.5
 164 165 3.0
 165 166 1.5
 166 167 1.5 196 1.5
 167 168 1.5 208 1.0
 168 169 1.0 194 1.5
 169 170 1.5 192 1.5
 170 171 1.5 209 1.0
 171 172 1.5 190 1.5
 172 173 3.0
 173 174 1.5
 174 175 1.5 189 1.5
 175 176 1.5 210 1.0
 176 177 1.5 211 1.0
 177 178 1.0 188 1.5
 178 179 2.0 187 1.5
 179 180 1.5 212 1.0
 180 181 2.0 213 1.0
 181 182 1.5 214 1.0
 182 183 1.5 187 1.5
 183 184 2.0 215 1.0
 184 185 1.5 216 1.0
 185 186 2.0
 186 187 1.5 217 1.0
 187
 188 189 1.5 218 1.0
 189 219 1.0
 190 191 2.0 220 1.0
 191 192 1.5 221 1.0
 192 193 1.0
 193 194 1.0
 194 195 1.5
 195 196 1.5 222 1.0
 196 223 1.0
 197 198 1.5 224 1.0
 198 225 1.0
 199 200 1.5 226 1.0
 200 201 2.0 227 1.0
 201 202 1.5 228 1.0
 202
 203
 204
 205
 206
 207
 208
 209
 210
 211
 212
 213
 214
 215
 216
 217
 218
 219
 220
 221
 222
 223
 224
 225
 226
 227
 228
 229 230 2.0 277 1.5 278 1.0
 230 231 1.5 279 1.0
 231 232 2.0
 232 233 1.5 280 1.0
 233 234 1.5 277 1.5
 234 235 1.0 274 2.0