%chk=_s_3d1_c.chk
%mem=60000mb
%nprocshared=32

#P PBE1PBE/Def2SVP SP  SCF=(YQC,MaxCycle=900) int=(Grid=Superfinegrid) EmpiricalDispersion=GD3BJ SCRF=(PCM,Solvent=DiMethylSulfoxide)

_s_3d1_c

4 1
Pd -0.209 2.9222 0.1109
Pd -0.731 -6.7226 0.2112
C 4.3602 -2.9525 0.0286
C 3.8459 -4.0369 0.1689
C 3.2397 -5.3 0.3203
C 3.9941 -6.4544 0.5703
C 3.3411 -7.6665 0.7079
C 1.9603 -7.7106 0.5929
N 1.2458 -6.6089 0.3481
C 1.853 -5.4306 0.2146
H 5.0676 -6.389 0.6554
H 3.8949 -8.5704 0.9035
H 1.4057 -8.6393 0.7015
H 1.2179 -4.5701 0.0112
C 4.9198 -1.674 -0.182
C 6.1937 -1.5455 -0.7405
C 6.7022 -0.2842 -0.9896
C 5.9603 0.8462 -0.6916
C 4.6905 0.7321 -0.1203
C 4.1782 -0.5364 0.1367
H 6.769 -2.4257 -0.9822
H 7.6832 -0.1785 -1.4271
H 6.364 1.8176 -0.93
H 3.2192 -0.6608 0.6138
C 3.9011 1.9402 0.168
C 4.5034 3.1439 0.5504
C 3.7225 4.2696 0.7515
C 2.3507 4.1784 0.5865
N 1.7697 3.0243 0.2526
C 2.5128 1.9367 0.0426
H 5.5706 3.1941 0.6988
H 4.1725 5.2071 1.0355
H 1.6981 5.0367 0.7241
H 1.9746 1.0402 -0.2581
C -0.3153 -2.7565 5.0665
C -0.4958 -3.8766 4.6504
C -0.6684 -5.1699 4.1189
C -0.7733 -6.306 4.933
C -0.912 -7.5474 4.3374
C -0.9349 -7.6406 2.9537
N -0.8355 -6.5552 2.1826
C -0.712 -5.3486 2.7344
H -0.7436 -6.2054 6.0067
H -0.9964 -8.4384 4.9383
H -1.0375 -8.5945 2.4433
H -0.6364 -4.4987 2.0567
C -0.0598 -1.4475 5.5272
C 0.5018 -1.2443 6.7903
C 0.7908 0.0415 7.2078
C 0.5242 1.1243 6.3871
C -0.0479 0.9352 5.1267
C -0.3383 -0.3574 4.7018
H 0.7127 -2.088 7.4288
H 1.2312 0.2037 8.1797
H 0.7858 2.1161 6.7209
H -0.8129 -0.5317 3.7493
C -0.323 2.0963 4.2651
C -0.7479 3.3161 4.8023
C -0.9601 4.3991 3.9662
C -0.7592 4.247 2.6053
N -0.375 3.078 2.0868
C -0.1565 2.0304 2.8827
H -0.9225 3.409 5.8627
H -1.281 5.3479 4.3647
H -0.9083 5.0689 1.9086
H 0.1838 1.1211 2.3922
C -5.2987 -0.847 0.3088
C -4.7853 0.2367 0.1595
C -4.1792 1.4988 -0.0007
C -4.9333 2.6515 -0.2592
C -4.28 3.8626 -0.4043
C -2.8994 3.9075 -0.2876
N -2.1852 2.8073 -0.035
C -2.7926 1.63 0.1052
H -6.0067 2.5855 -0.3449
H -4.8336 4.7652 -0.6064
H -2.3446 4.8355 -0.4011
H -2.1577 0.7706 0.3142
C -5.8563 -2.1246 0.53
C -7.124 -2.251 1.1031
C -7.6297 -3.5113 1.3623
C -6.8911 -4.6429 1.0603
C -5.6276 -4.5309 0.4747
C -5.1182 -3.2634 0.2074
H -7.6965 -1.3699 1.3478
H -8.6058 -3.6154 1.8111
H -7.292 -5.6135 1.3067
H -4.1646 -3.1408 -0.2808
C -4.8412 -5.7399 0.1826
C -5.447 -6.945 -0.1895
C -4.6678 -8.0712 -0.3946
C -3.2945 -7.9793 -0.2431
N -2.7105 -6.8241 0.0814
C -3.4517 -5.7358 0.2945
H -6.5156 -6.9959 -0.327
H -5.1204 -9.0097 -0.6711
H -2.6431 -8.8379 -0.3842
H -2.9107 -4.838 0.5865
C -0.634 -1.0422 -4.7432
C -0.4461 0.0769 -4.3276
C -0.2664 1.3693 -3.7963
C -0.1547 2.5047 -4.6103
C -0.0104 3.7455 -4.0146
C 0.0106 3.8388 -2.6309
N -0.0952 2.7539 -1.8599
C -0.2234 1.5478 -2.4117
H -0.1836 2.4042 -5.6841
H 0.0793 4.636 -4.6155
H 0.1168 4.7923 -2.1205
H -0.3036 0.6983 -1.7341
C -0.8986 -2.3499 -5.2024
C -1.4708 -2.5503 -6.4611
C -1.7691 -3.8347 -6.8765
C -1.501 -4.9188 -6.0581
C -0.9182 -4.7326 -4.8023
C -0.6187 -3.4415 -4.3793
H -1.6829 -1.7055 -7.0978
H -2.2179 -3.9946 -7.845
H -1.7698 -5.9094 -6.3901
H -0.1358 -3.2696 -3.4305
C -0.6413 -5.8951 -3.9431
C -0.2254 -7.1163 -4.4839
C -0.0108 -8.2004 -3.6497
C -0.2006 -8.0478 -2.2872
N -0.5765 -6.8776 -1.7655
C -0.7971 -5.8289 -2.5595
H -0.0594 -7.2097 -5.5456
H 0.3035 -9.1502 -4.0509
H -0.0491 -8.8705 -1.592
H -1.1302 -4.9185 -2.0662

