%chk=_s_5a3_b.chk
%mem=60000mb
%nprocshared=32

#P PBE1PBE/Def2SVP SP  SCF=(YQC,MaxCycle=900) int=(Grid=Superfinegrid) EmpiricalDispersion=GD3BJ SCRF=(PCM,Solvent=DiMethylSulfoxide)

_s_5a3_b

4 1
Pd 0.0463 5.7945 0.1031
Pd 0.0533 -7.5144 0.007
C 7.0148 -3.8565 -0.0437
C 6.5956 -4.991 -0.0399
C 6.1229 -6.3169 -0.0363
C 7.0121 -7.3783 -0.0463
C 6.5586 -8.702 -0.0434
C 5.2178 -8.9876 -0.0311
C 4.2786 -7.9344 -0.0208
C 2.8902 -8.1639 -0.0091
N 2.0083 -7.1874 0.0005
C 2.4219 -5.8955 -0.0001
C 3.7478 -5.5647 -0.0116
C 4.7243 -6.5815 -0.0228
H 8.0728 -7.1779 -0.0564
H 7.283 -9.5019 -0.0513
H 4.8725 -10.0092 -0.0293
H 2.5086 -9.1824 -0.0078
H 1.6331 -5.1445 0.0091
H 4.0658 -4.5345 -0.0125
C 7.5086 -2.5365 -0.0481
C 8.9084 -2.319 -0.0773
C 9.4068 -1.0489 -0.0817
C 8.5465 0.0705 -0.0571
C 9.0376 1.3944 -0.0605
C 8.1867 2.4608 -0.036
C 6.7862 2.2513 -0.007
C 6.278 0.9685 -0.0032
C 7.1404 -0.1433 -0.0278
C 6.6454 -1.4612 -0.024
H 9.5715 -3.1712 -0.0961
H 10.4743 -0.8825 -0.104
H 10.1067 1.5498 -0.0828
H 8.5687 3.4706 -0.0387
H 5.211 0.8083 0.019
H 5.5784 -1.6216 -0.0015
C 5.9139 3.3567 0.0175
C 5.1516 4.2951 0.0386
C 4.2534 5.3776 0.0615
C 4.6976 6.7072 0.0701
C 3.7632 7.7274 0.0911
C 2.4131 7.4114 0.1027
N 1.9939 6.1424 0.0948
C 2.8744 5.1463 0.0752
H 5.7549 6.9213 0.0601
H 4.0768 8.7587 0.0982
H 1.6434 8.1811 0.1187
H 2.4798 4.1328 0.0699
C -0.2711 2.6214 7.1499
C -0.2975 3.7625 6.7495
C -0.3498 5.0667 6.2221
C -0.5622 6.167 7.0338
C -0.6415 7.4559 6.4936
C -0.5198 7.6665 5.144
C -0.2975 6.5715 4.282
C -0.1761 6.7176 2.8861
N 0.0391 5.699 2.0825
C 0.165 4.4462 2.5896
C 0.0493 4.1947 3.9265
C -0.1985 5.2569 4.8192
H -0.6721 6.0268 8.0985
H -0.8072 8.29 7.1581
H -0.5912 8.6612 4.7338
H -0.2616 7.7008 2.4311
H 0.3661 3.6542 1.8679
H 0.1456 3.1947 4.3176
C -0.245 1.2856 7.5987
C -0.2569 1.0055 8.9867
C -0.2353 -0.2863 9.4259
C -0.2012 -1.3649 8.5154
C -0.1771 -2.7092 8.9464
C -0.1405 -3.7348 8.0477
C -0.1286 -3.4632 6.6566
C -0.1554 -2.1598 6.2065
C -0.1903 -1.0887 7.1199
C -0.2125 0.2503 6.687
H -0.2827 1.8263 9.6879
H -0.244 -0.5017 10.4849
H -0.1866 -2.913 10.0076
H -0.1207 -4.7604 8.3842
H -0.1464 -1.9508 5.1478
H -0.2075 0.4599 5.6283
C -0.0795 -4.5434 5.7538
C -0.029 -5.4804 4.9908
C 0.0547 -6.6178 4.1668
C 0.2197 -7.891 4.7317
C 0.3156 -8.9907 3.8989
C 0.2465 -8.806 2.5273
N 0.0823 -7.5918 1.9911
C -0.0132 -6.52 2.7732
H 0.2729 -7.9991 5.8037
H 0.4448 -9.9803 4.3064
H 0.3241 -9.6443 1.8359
H -0.1476 -5.5601 2.2817
C -6.995 2.3781 0.0496
C -6.5813 3.5145 0.0644
C -6.0657 4.8243 0.0804
C -6.9052 5.9244 0.086
C -6.3892 7.2255 0.1012
C -5.0366 7.4494 0.1106
C -4.1457 6.3544 0.1052
C -2.7475 6.5163 0.1129
N -1.9142 5.4966 0.1077
C -2.391 4.2284 0.0954
C -3.7308 3.9623 0.0865
C -4.656 5.025 0.0905
H -7.9742 5.7744 0.0786
H -7.0755 8.0584 0.1053
H -4.6453 8.4541 0.1219
H -2.3119 7.5141 0.1234
H -1.6448 3.4381 0.0932
H -4.0982 2.9489 0.0762
C -7.4648 1.0495 0.0326
C -8.8582 0.7959 0.0142
C -9.3221 -0.4872 -0.0025
C -8.4323 -1.5835 -0.0015
C -8.8884 -2.9197 -0.0181
C -8.0091 -3.9628 -0.0164
C -6.6137 -3.7174 0.0019
C -6.1393 -2.4222 0.018
C -7.0319 -1.3337 0.0169
C -6.5731 -0.0032 0.0337
H -9.5437 1.6302 0.0135
H -10.385 -0.6821 -0.0166
H -9.9532 -3.1033 -0.0321
H -8.3645 -4.9822 -0.029
H -5.0768 -2.2336 0.0321
H -5.5106 0.1856 0.0478
C -5.7244 -4.8096 0.0035
C -4.9632 -5.7492 0.0049
C -4.1166 -6.8729 0.005
C -4.6465 -8.1718 -0.002
C -3.7827 -9.2512 -0.0028
C -2.4153 -9.0227 0.003
N -1.9129 -7.7853 0.0099
C -2.7257 -6.7306 0.0113
H -5.7158 -8.3147 -0.0069
H -4.1621 -10.2602 -0.0081
H -1.7024 -9.8435 0.0019
H -2.2598 -5.7465 0.0176
C -0.3564 2.7198 -6.9827
C -0.3761 3.8552 -6.5664
C -0.4197 5.1521 -6.0204
C -0.6402 6.2638 -6.8143
C -0.7107 7.5454 -6.2555
C -0.5721 7.7372 -4.9047
C -0.3411 6.6301 -4.0607
C -0.2029 6.7568 -2.6645
N 0.0201 5.7268 -1.8777
C 0.1381 4.481 -2.4034
C 0.0061 4.2481 -3.7421
C -0.2509 5.3229 -4.6171
H -0.7634 6.1385 -7.8794
H -0.8831 8.3887 -6.9065
H -0.6368 8.7263 -4.4801
H -0.2812 7.7336 -2.1948
H 0.3466 3.6789 -1.6952
H 0.0961 3.2535 -4.1482
C -0.3382 1.3905 -7.4511
C -0.3734 1.1309 -8.8427
C -0.3596 -0.1543 -9.3011
C -0.3107 -1.2462 -8.4073
C -0.2941 -2.584 -8.8584
C -0.2428 -3.6227 -7.9757
C -0.2078 -3.3717 -6.5811
C -0.2267 -2.075 -6.1115
C -0.2764 -0.9906 -7.0082
C -0.2909 0.3419 -6.5554
H -0.4105 1.9619 -9.5312
H -0.386 -0.3541 -10.3629
H -0.3214 -2.7721 -9.9222
H -0.229 -4.6432 -8.3275
H -0.2 -1.8817 -5.0501
H -0.2681 0.536 -5.4939
C -0.1442 -4.4651 -5.6953
C -0.0814 -5.4132 -4.9471
C 0.0147 -6.5618 -4.1401
C 0.1776 -7.8266 -4.724
C 0.2852 -8.9374 -3.9073
C 0.2293 -8.7717 -2.5327
N 0.0672 -7.5654 -1.9784
C -0.0392 -6.4833 -2.7447
H 0.2201 -7.92 -5.7979
H 0.4131 -9.9209 -4.3296
H 0.316 -9.619 -1.8535
H -0.1711 -5.5306 -2.2387

