%chk=cis_l2_lc_FINAL.chk
%nprocshared=48
%mem=120GB
# SP PBE1PBE/def2svp empiricaldispersion=GD3BJ scrf=(solvent=dmso)

cis_l2_lc

4 1
 Pd                -6.09910000   -2.35560000   -0.25310000
 Pd                 6.09850000   -2.35570000   -0.25270000
 C                 -0.00050000   -6.69940000    3.82540000
 C                  1.20960000   -6.13140000    3.43350000
 C                  1.21920000   -4.96340000    2.65890000
 C                 -0.00050000   -4.38560000    2.29150000
 C                 -1.22030000   -4.96350000    2.65890000
 C                 -1.21070000   -6.13140000    3.43350000
 C                 -2.47170000   -4.35370000    2.16860000
 C                 -2.59200000   -2.96240000    2.04420000
 C                 -3.71670000   -2.42020000    1.44960000
 N                 -4.71410000   -3.18690000    0.98510000
 C                 -4.65440000   -4.51530000    1.15670000
 C                 -3.56000000   -5.12940000    1.74680000
 C                  2.47060000   -4.35360000    2.16860000
 C                  2.59070000   -2.96230000    2.04370000
 C                  3.71550000   -2.42020000    1.44910000
 N                  4.71320000   -3.18690000    0.98520000
 C                  4.65360000   -4.51530000    1.15740000
 C                  3.55910000   -5.12930000    1.74740000
 H                 -0.00050000   -7.59900000    4.44390000
 H                  2.15050000   -6.58950000    3.74590000
 H                 -0.00060000   -3.50540000    1.64580000
 H                 -2.15160000   -6.58960000    3.74580000
 H                 -1.80840000   -2.29230000    2.39900000
 H                 -3.81450000   -1.34060000    1.31910000
 H                 -5.49520000   -5.10030000    0.77830000
 H                 -3.54120000   -6.21750000    1.82010000
 H                  1.80690000   -2.29230000    2.39800000
 H                  3.81300000   -1.34070000    1.31810000
 H                  5.49470000   -5.10020000    0.77950000
 H                  3.54060000   -6.21740000    1.82100000
 C                 -0.00020000   -4.73740000   -5.70480000
 C                  1.20940000   -4.36460000   -5.12360000
 C                  1.21900000   -3.58340000   -3.96000000
 C                 -0.00020000   -3.18710000   -3.39940000
 C                 -1.21950000   -3.58330000   -3.96000000
 C                 -1.20980000   -4.36450000   -5.12370000
 C                 -2.47470000   -3.22070000   -3.27280000
 C                 -2.62290000   -1.97590000   -2.64500000
 C                 -3.75330000   -1.71800000   -1.88990000
 N                 -4.72660000   -2.62780000   -1.73430000
 C                 -4.63990000   -3.79780000   -2.38290000
 C                 -3.54080000   -4.12380000   -3.16260000
 C                  2.47430000   -3.22090000   -3.27270000
 C                  2.62270000   -1.97590000   -2.64520000
 C                  3.75310000   -1.71800000   -1.89010000
 N                  4.72610000   -2.62800000   -1.73410000
 C                  4.63920000   -3.79820000   -2.38230000
 C                  3.54010000   -4.12420000   -3.16210000
 H                 -0.00020000   -5.33020000   -6.62170000
 H                  2.15060000   -4.66920000   -5.58640000
 H                 -0.00020000   -2.62120000   -2.46530000
 H                 -2.15100000   -4.66900000   -5.58650000
 H                 -1.85760000   -1.20370000   -2.73120000
 H                 -3.87820000   -0.76350000   -1.37450000
 H                 -5.46330000   -4.50070000   -2.23980000
 H                 -3.49870000   -5.10760000   -3.63160000
 H                  1.85750000   -1.20360000   -2.73180000
 H                  3.87810000   -0.76340000   -1.37500000
 H                  5.46240000   -4.50120000   -2.23880000
 H                  3.49790000   -5.10810000   -3.63080000
 C                  9.43810000   -1.56530000   -2.76010000
 C                  9.37710000   -0.17110000   -3.00750000
 C                  8.24810000    0.54720000   -2.50670000
 C                  8.11380000    1.94970000   -2.76350000
 C                  9.14320000    2.58590000   -3.43520000
 C                 10.27440000    1.88080000   -3.89900000
 C                 10.38810000    0.52270000   -3.71220000
 C                  6.90520000    2.71230000   -2.38150000
 C                  7.02140000    3.97200000   -1.77320000
 C                  5.89910000    4.74590000   -1.50760000
 C                  4.61510000    4.27730000   -1.84100000
 C                  3.45480000    5.07660000   -1.63690000
 C                  2.43800000    5.74100000   -1.53680000
 C                  1.21850000    6.47650000   -1.48630000
 C                  1.20990000    7.88320000   -1.47410000
 C                  0.00050000    8.57130000   -1.46820000
 C                 -1.20900000    7.88320000   -1.47400000
 C                 -1.21760000    6.47650000   -1.48620000
 C                 -2.43720000    5.74120000   -1.53650000
 C                 -3.45410000    5.07690000   -1.63650000
 C                 -4.61450000    4.27770000   -1.84050000
 C                 -4.49260000    3.00400000   -2.42730000
 C                 -5.61930000    2.24070000   -2.69700000
 C                 -6.90480000    2.71300000   -2.38100000
 C                 -8.11360000    1.95070000   -2.76310000
 C                 -8.24810000    0.54810000   -2.50660000
 C                 -9.37720000   -0.16990000   -3.00750000
 C                 -9.43850000   -1.56410000   -2.76050000
 C                 -8.45740000   -2.17570000   -2.02830000
 N                 -7.42400000   -1.46620000   -1.49790000
 C                 -7.32130000   -0.16850000   -1.72050000
 C                -10.38810000    0.52430000   -3.71210000
 C                -10.27420000    1.88240000   -3.89860000
 C                 -9.14290000    2.58720000   -3.43460000
 C                 -7.02080000    3.97260000   -1.77260000
 C                 -5.89840000    4.74640000   -1.50700000
 C                  0.00040000    5.78250000   -1.48740000
 C                  4.49310000    3.00360000   -2.42770000
 C                  5.61960000    2.24010000   -2.69740000
 C                  7.32120000   -0.16910000   -1.72040000
 N                  7.42360000   -1.46670000   -1.49750000
 C                  8.45690000   -2.17660000   -2.02770000
 H                 10.27110000   -2.15480000   -3.14620000
 H                  9.06010000    3.65370000   -3.64800000
 H                 11.05480000    2.42500000   -4.43520000
 H                 11.24890000   -0.02870000   -4.09500000
 H                  8.00970000    4.34980000   -1.50250000
 H                  6.00930000    5.72600000   -1.04020000
 H                  2.15630000    8.42660000   -1.47260000
 H                  0.00050000    9.66330000   -1.45920000
 H                 -2.15540000    8.42670000   -1.47240000
 H                 -3.50370000    2.63030000   -2.69850000
 H                 -5.49830000    1.28030000   -3.20350000
 H                -10.27160000   -2.15340000   -3.14680000
 H                 -8.46910000   -3.24660000   -1.82160000
 H                 -6.48700000    0.35110000   -1.24600000
 H                -11.24900000   -0.02690000   -4.09500000
 H                -11.05450000    2.42680000   -4.43460000
 H                 -9.05960000    3.65500000   -3.64720000
 H                 -8.00900000    4.35050000   -1.50170000
 H                 -6.00840000    5.72650000   -1.03940000
 H                  0.00040000    4.69190000   -1.49760000
 H                  3.50400000    2.62990000   -2.69880000
 H                  5.49850000    1.27970000   -3.20370000
 H                  6.48700000    0.35080000   -1.24600000
 H                  8.46840000   -3.24740000   -1.82090000
 C                  9.40040000   -2.52780000    2.44110000
 C                  9.30040000   -1.32420000    3.18360000
 C                  8.19980000   -0.45990000    2.90200000
 C                  8.04120000    0.77020000    3.61500000
 C                  8.95870000    1.07260000    4.60260000
 C                 10.04570000    0.21470000    4.88480000
 C                 10.22690000   -0.95820000    4.18840000
 C                  6.90130000    1.66990000    3.32350000
 C                  5.99260000    1.99480000    4.33970000
 C                  4.88060000    2.78290000    4.07360000
 C                  4.64950000    3.27770000    2.77760000
 C                  3.47600000    4.04510000    2.50970000
 C                  2.44730000    4.67240000    2.32890000
 C                  1.21910000    5.38210000    2.16030000
 C                  1.20910000    6.76280000    1.89610000
 C                  0.00040000    7.43950000    1.77200000
 C                 -1.20830000    6.76270000    1.89620000
 C                 -1.21820000    5.38200000    2.16050000
 C                 -2.44630000    4.67220000    2.32920000
 C                 -3.47490000    4.04480000    2.51010000
 C                 -4.64840000    3.27740000    2.77790000
 C                 -5.57890000    2.98350000    1.76540000
 C                 -6.68650000    2.19020000    2.03750000
 C                 -6.90030000    1.66970000    3.32380000
 C                 -8.04040000    0.77030000    3.61540000
 C                 -8.19960000   -0.45960000    2.90210000
 C                 -9.30040000   -1.32360000    3.18370000
 C                 -9.40100000   -2.52700000    2.44090000
 C                 -8.45950000   -2.83340000    1.49450000
 N                 -7.40410000   -2.00860000    1.25400000
 C                 -7.27100000   -0.88260000    1.92990000
 C                -10.22660000   -0.95760000    4.18880000
 C                -10.04480000    0.21510000    4.88550000
 C                 -8.95760000    1.07270000    4.60320000
 C                 -5.99150000    1.99440000    4.34000000
 C                 -4.87940000    2.78240000    4.07390000
 C                  0.00050000    4.69990000    2.28980000
 C                  5.57990000    2.98370000    1.76500000
 C                  6.68750000    2.19030000    2.03720000
 C                  7.27100000   -0.88260000    1.93010000
 N                  7.40350000   -2.00890000    1.25430000
 C                  8.45860000   -2.83410000    1.49490000
 H                 10.22780000   -3.21570000    2.62160000
 H                  8.85260000    2.00420000    5.16250000
 H                 10.75510000    0.49880000    5.66510000
 H                 11.07200000   -1.61510000    4.40330000
 H                  6.14670000    1.59810000    5.34580000
 H                  4.16960000    3.01120000    4.86970000
 H                  2.15500000    7.29670000    1.79040000
 H                  0.00030000    8.51100000    1.56560000
 H                 -2.15430000    7.29650000    1.79070000
 H                 -5.42620000    3.37820000    0.75960000
 H                 -7.40090000    1.97820000    1.23780000
 H                -10.22870000   -3.21460000    2.62140000
 H                 -8.50760000   -3.74860000    0.90240000
 H                 -6.39440000   -0.27270000    1.70640000
 H                -11.07190000   -1.61420000    4.40370000
 H                -10.75400000    0.49930000    5.66600000
 H                 -8.85110000    2.00410000    5.16330000
 H                 -6.14550000    1.59760000    5.34600000
 H                 -4.16830000    3.01050000    4.87000000
 H                  0.00050000    3.62950000    2.50020000
 H                  5.42720000    3.37830000    0.75920000
 H                  7.40180000    1.97810000    1.23740000
 H                  6.39460000   -0.27240000    1.70660000
 H                  8.50620000   -3.74940000    0.90300000

 1 12 1.0 42 1.0 92 1.0 158 1.0
 2 18 1.0 48 1.0 103 1.0 169 1.0
 3 4 1.5 8 1.5 21 1.0
 4 5 1.5 22 1.0
 5 6 1.5 15 1.0
 6 7 1.5 23 1.0
 7 8 1.5 9 1.0
 8 24 1.0
 9 10 1.5 14 1.5
 10 11 2.0 25 1.0
 11 12 1.5 26 1.0
 12 13 1.5
 13 14 1.5 27 1.0
 14 28 1.0
 15 16 1.5 20 1.5
 16 17 2.0 29 1.0
 17 18 1.5 30 1.0
 18 19 1.5
 19 20 1.5 31 1.0
 20 32 1.0
 21
 22
 23
 24
 25
 26
 27
 28
 29
 30
 31
 32
 33 34 1.5 38 1.5 51 1.0
 34 35 1.5 52 1.0
 35 36 1.5 45 1.0
 36 37 1.5 53 1.0
 37 38 1.5 39 1.0
 38 54 1.0
 39 40 1.5 44 1.5
 40 41 2.0 55 1.0
 41 42 1.5 56 1.0
 42 43 1.5
 43 44 1.5 57 1.0
 44 58 1.0
 45 46 1.5 50 1.5
 46 47 2.0 59 1.0
 47 48 1.5 60 1.0
 48 49 1.5
 49 50 1.5 61 1.0
 50 62 1.0
 51
 52
 53
 54
 55
 56
 57
 58
 59
 60
 61
 62
 63 64 1.5 104 2.0 105 1.0
 64 65 1.5 69 1.5
 65 66 1.5 102 1.5
 66 67 2.0 70 1.0
 67 68 1.5 106 1.0
 68 69 2.0 107 1.0
 69 108 1.0
 70 71 1.5 101 1.5
 71 72 1.5 109 1.0
 72 73 1.5 110 1.0
 73 74 1.5 100 1.5
 74 75 3.0
 75 76 1.5
 76 77 1.5 99 1.5
 77 78 1.5 111 1.0
 78 79 1.5 112 1.0
 79 80 1.5 113 1.0
 80 81 1.5 99 1.5
 81 82 3.0
 82 83 1.5
 83 84 1.5 98 1.5
 84 85 1.5 114 1.0
 85 86 1.5 115 1.0
 86 87 1.0 97 1.5
 87 88 1.5 96 2.0
 88 89 1.5 93 1.5
 89 90 1.5 94 1.5
 90 91 2.0 116 1.0
 91 92 1.5 117 1.0
 92 93 2.0
 93 118 1.0
 94 95 2.0 119 1.0
 95 96 1.5 120 1.0
 96 121 1.0
 97 98 1.5 122 1.0
 98 123 1.0
 99 124 1.0
 100 101 1.5 125 1.0
 101 126 1.0
 102 103 2.0 127 1.0
 103 104 1.5
 104 128 1.0
 105
 106
 107
 108
 109
 110
 111
 112
 113
 114
 115
 116
 117
 118
 119
 120
 121
 122
 123
 124
 125
 126
 127
 128
 129 130 1.5 170 2.0 171 1.0
 130 131 1.5 135 1.5
 131 132 1.5 168 1.5
 132 133 2.0 136 1.0
 133 134 1.5 172 1.0
 134 135 2.0 173 1.0
 135 174 1.0
 136 137 1.5 167 1.5
 137 138 1.5 175 1.0
 138 139 1.5 176 1.0
 139 140 1.5 166 1.5
 140 141 3.0
 141 142 1.5
 142 143 1.5 165 1.5
 143 144 1.5 177 1.0
 144 145 1.5 178 1.0
 145 146 1.5 179 1.0
 146 147 1.5 165 1.5
 147 148 3.0
 148 149 1.5
 149 150 1.5 164 1.5
 150 151 1.5 180 1.0
 151 152 1.5 181 1.0
 152 153 1.0 163 1.5
 153 154 1.5 162 2.0
 154 155 1.5 159 1.5
 155 156 1.5 160 1.5
 156 157 2.0 182 1.0
 157 158 1.5 183 1.0
 158 159 2.0
 159 184 1.0
 160 161 2.0 185 1.0
 161 162 1.5 186 1.0
 162 187 1.0
 163 164 1.5 188 1.0
 164 189 1.0
 165 190 1.0
 166 167 1.5 191 1.0
 167 192 1.0
 168 169 2.0 193 1.0
 169 170 1.5
 170 194 1.0
 171
 172
 173
 174
 175
 176
 177
 178
 179
 180
 181
 182
 183
 184
 185
 186
 187
 188
 189
 190
 191
 192
 193
 194

