%chk=_s_5d3_d.chk
%mem=60000mb
%nprocshared=32

#P PBE1PBE/Def2SVP SP  SCF=(YQC,MaxCycle=900) int=(Grid=Superfinegrid) EmpiricalDispersion=GD3BJ SCRF=(PCM,Solvent=DiMethylSulfoxide)

_s_5d3_d

4 1
Pd -0.4812 5.2453 0.0606
Pd -0.5756 -5.5532 -0.3425
C 6.4236 -2.2559 -0.1501
C 6.0392 -3.4011 -0.2004
C 5.5449 -4.7186 -0.2584
C 6.3996 -5.806 -0.2974
C 5.9006 -7.1127 -0.355
C 4.5508 -7.3541 -0.3746
C 3.6459 -6.2721 -0.3362
C 2.2488 -6.4525 -0.3539
N 1.4043 -5.4463 -0.3186
C 1.8649 -4.169 -0.2623
C 3.2001 -3.8864 -0.2408
C 4.1388 -4.938 -0.2775
H 7.4666 -5.6428 -0.2831
H 6.5977 -7.936 -0.3842
H 4.1732 -8.3632 -0.419
H 1.8308 -7.4537 -0.3985
H 1.1041 -3.386 -0.2354
H 3.5566 -2.87 -0.1961
C 6.8608 -0.9156 -0.0914
C 8.2271 -0.6182 -0.0638
C 8.6459 0.6994 -0.0058
C 7.7235 1.7302 0.0255
C 6.355 1.4409 -0.0018
C 5.9249 0.117 -0.0603
H 8.9499 -1.4199 -0.088
H 9.7019 0.9244 0.0154
H 8.0553 2.7564 0.0708
H 4.8698 -0.1058 -0.0815
C 5.4161 2.493 0.03
C 4.6056 3.3894 0.0567
C 3.7255 4.4879 0.0909
C 4.2256 5.796 0.1518
C 3.3372 6.856 0.1837
C 1.9767 6.5967 0.1545
N 1.5024 5.3465 0.0963
C 2.3381 4.313 0.065
H 5.2911 5.9632 0.1731
H 3.6948 7.8719 0.2306
H 1.2417 7.4027 0.1778
H 1.8969 3.3221 0.0181
C -0.6163 1.6249 6.9002
C -0.6041 2.7874 6.5684
C -0.589 4.1275 6.1354
C -0.5976 5.1752 7.0391
C -0.5822 6.5046 6.6009
C -0.5581 6.8083 5.2639
C -0.5485 5.7684 4.3101
C -0.5237 6.0134 2.9231
N -0.5148 5.0464 2.0332
C -0.5296 3.7481 2.4344
C -0.5538 3.4039 3.755
C -0.564 4.4118 4.741
H -0.6164 4.9626 8.0973
H -0.5897 7.2955 7.3352
H -0.5464 7.8347 4.9332
H -0.5113 7.0336 2.5517
H -0.5209 3.0004 1.6385
H -0.5652 2.3712 4.0642
C -0.6299 0.2647 7.2752
C -0.6488 -0.0961 8.6263
C -0.6616 -1.4328 8.9839
C -0.6559 -2.4205 8.0151
C -0.6371 -2.0678 6.6613
C -0.6242 -0.7242 6.2927
H -0.6532 0.6718 9.3852
H -0.6761 -1.7067 10.0284
H -0.6659 -3.4618 8.2992
H -0.6098 -0.4525 5.2491
C -0.6311 -3.076 5.6751
C -0.6257 -3.9348 4.8244
C -0.6205 -4.9921 3.8946
C -0.6335 -6.3232 4.3338
C -0.6282 -7.3416 3.3975
C -0.6102 -7.0191 2.0504
N -0.5977 -5.747 1.6343
C -0.6024 -4.7527 2.5167
H -0.6476 -6.54 5.3905
H -0.638 -8.3739 3.7079
H -0.6054 -7.7906 1.2791
H -0.5918 -3.7414 2.1218
C -7.5161 -2.1288 -0.2741
C -7.1516 -3.2809 -0.311
C -6.6804 -4.6075 -0.3534
C -7.554 -5.6796 -0.3946
C -7.078 -6.9955 -0.4366
C -5.7326 -7.2611 -0.438
C -4.8089 -6.1953 -0.3967
C -3.4152 -6.4009 -0.3954
N -2.5531 -5.4098 -0.3568
C -2.9913 -4.1241 -0.3161
C -4.3213 -3.8174 -0.3136
C -5.2783 -4.8522 -0.3539
H -8.618 -5.4972 -0.3943
H -7.7895 -7.8064 -0.4681
H -5.3728 -8.2772 -0.4704
H -3.0149 -7.4098 -0.427
H -2.2168 -3.3546 -0.286
H -4.6599 -2.7944 -0.2811
C -7.9298 -0.7805 -0.2309
C -9.2908 -0.4582 -0.2306
C -9.6864 0.8672 -0.1883
C -8.7462 1.8813 -0.1461
C -7.3828 1.567 -0.146
C -6.9759 0.2352 -0.1884
H -10.0274 -1.2467 -0.2635
H -10.7384 1.1114 -0.1883
H -9.0599 2.9135 -0.1132
H -5.9249 -0.0068 -0.1884
C -6.4257 2.6021 -0.1026
C -5.5996 3.4839 -0.0653
C -4.7003 4.5663 -0.0199
C -5.1773 5.8838 0.0175
C -4.2705 6.9275 0.0627
C -2.9147 6.643 0.0699
N -2.4625 5.3838 0.034
C -3.3162 4.3656 -0.0099
H -6.2398 6.0707 0.011
H -4.6102 7.9502 0.092
H -2.1657 7.4355 0.1052
H -2.8926 3.3664 -0.0378
C -0.368 2.1434 -7.0294
C -0.3645 3.2781 -6.6119
C -0.3612 4.5823 -6.0802
C -0.3286 5.6941 -6.903
C -0.3252 6.9872 -6.3669
C -0.3539 7.1907 -5.0111
C -0.3875 6.0829 -4.1377
C -0.4171 6.2241 -2.7364
N -0.448 5.1938 -1.9212
C -0.4529 3.929 -2.4183
C -0.4258 3.6838 -3.7608
C -0.3916 4.7622 -4.6686
H -0.3055 5.5608 -7.974
H -0.2994 7.8304 -7.04
H -0.351 8.1896 -4.6047
H -0.4147 7.2139 -2.2899
H -0.48 3.1243 -1.6804
H -0.4297 2.677 -4.1462
C -0.3728 0.8149 -7.5045
C -0.3448 0.5553 -8.8785
C -0.3499 -0.7512 -9.3346
C -0.3828 -1.808 -8.4422
C -0.4107 -1.5566 -7.0662
C -0.4056 -0.2441 -6.5986
H -0.3192 1.3773 -9.578
H -0.3282 -0.9469 -10.3965
H -0.3867 -2.8252 -8.8031
H -0.4272 -0.0506 -5.5378
C -0.4442 -2.6351 -6.158
C -0.4729 -3.5547 -5.3738
C -0.5051 -4.6781 -4.5256
C -0.5169 -5.9726 -5.0632
C -0.5478 -7.0578 -4.2057
C -0.5657 -6.8365 -2.8383
N -0.5545 -5.5991 -2.3283
C -0.5254 -4.5419 -3.1338
H -0.5019 -6.11 -6.1331
H -0.5575 -8.064 -4.5924
H -0.5897 -7.6633 -2.1269
H -0.5177 -3.563 -2.6644

