%chk=_s_5b4_c.chk
%mem=60000mb
%nprocshared=32

#P PBE1PBE/Def2SVP SP  SCF=(YQC,MaxCycle=900) int=(Grid=Superfinegrid) EmpiricalDispersion=GD3BJ SCRF=(PCM,Solvent=DiMethylSulfoxide)

_s_5b4_c

4 1
Pd 0.501 6.291 0.6804
Pd -0.908 -7.2138 -2.2202
C 5.0276 -2.6051 -0.4939
C 4.9058 -3.7892 -0.7104
C 4.7156 -5.1689 -0.9122
C 5.7123 -6.0809 -0.6103
C 5.4993 -7.4564 -0.7558
C 4.2893 -7.9433 -1.1799
C 3.2484 -7.0467 -1.5024
C 1.9688 -7.4824 -1.8967
N 0.9968 -6.6478 -2.1984
C 1.2193 -5.3092 -2.178
C 2.4154 -4.7831 -1.7824
C 3.464 -5.643 -1.3978
H 6.6659 -5.7241 -0.2516
H 6.3013 -8.1372 -0.5153
H 4.1232 -9.0049 -1.27
H 1.7455 -8.5448 -1.9547
H 0.3829 -4.6894 -2.4954
H 2.574 -3.7172 -1.7526
C 5.1475 -1.2264 -0.2356
C 6.3513 -0.6969 0.2436
C 6.4616 0.6522 0.4987
C 5.3694 1.5017 0.2834
C 4.1645 0.9706 -0.1912
C 4.0552 -0.3769 -0.4497
H 7.1942 -1.3515 0.408
H 7.3913 1.0622 0.8641
H 3.3289 1.6293 -0.3648
H 3.1303 -0.7876 -0.8224
C 5.5 2.8838 0.5155
C 5.6175 4.0763 0.6868
C 5.8372 5.4596 0.8131
C 7.1303 5.9437 0.9101
C 7.3844 7.3175 0.961
C 6.3594 8.2289 0.8972
C 5.0284 7.7835 0.8091
C 3.9282 8.6667 0.724
C 2.6597 8.168 0.662
N 2.4066 6.8366 0.7096
C 3.4073 5.9799 0.7641
C 4.7506 6.3856 0.7926
H 7.955 5.2478 0.9343
H 8.4056 7.6587 1.0367
H 6.5608 9.2885 0.9132
H 4.1039 9.7304 0.7064
H 1.7924 8.8197 0.5725
H 3.1582 4.9215 0.797
C 0.4748 -3.1446 4.1874
C 0.4054 -4.3238 3.9261
C 0.3704 -5.6862 3.5726
C 0.8222 -6.664 4.4415
C 0.844 -8.0113 4.0624
C 0.4372 -8.4002 2.812
C -0.0395 -7.4349 1.8994
C -0.4324 -7.7622 0.5876
N -0.883 -6.8645 -0.2634
C -1.0242 -5.5719 0.124
C -0.6434 -5.1448 1.3638
C -0.1035 -6.0655 2.2847
H 1.1711 -6.3806 5.4229
H 1.2008 -8.7461 4.7675
H 0.476 -9.4367 2.5172
H -0.364 -8.7889 0.2358
H -1.462 -4.9041 -0.6147
H -0.7465 -4.1112 1.6528
C 0.5461 -1.7654 4.463
C 0.5709 -1.3035 5.7837
C 0.6176 0.0486 6.0426
C 0.6463 0.9686 4.9869
C 0.643 0.5043 3.6666
C 0.5897 -0.8465 3.4074
H 0.5438 -2.0122 6.598
H 0.6267 0.4066 7.0613
H 0.6787 1.2138 2.8558
H 0.5834 -1.2089 2.3917
C 0.643 2.3479 5.2675
C 0.5965 3.5313 5.5181
C 0.4708 4.8817 5.8897
C 0.4027 5.2193 7.2306
C 0.2103 6.5443 7.6327
C 0.0639 7.5493 6.7086
C 0.1323 7.2553 5.3351
C -0.0286 8.2383 4.3324
C 0.0641 7.8885 3.0169
N 0.3362 6.6186 2.6275
C 0.4723 5.6692 3.5321
C 0.3617 5.9142 4.9096
H 0.491 4.4438 7.976
H 0.164 6.77 8.6871
H -0.1054 8.5674 7.0221
H -0.2273 9.2586 4.619
H -0.077 8.616 2.2196
H 0.6864 4.6644 3.1738
C -5.4042 1.7467 -1.3217
C -5.2723 2.9325 -1.1212
C -5.0677 4.3126 -0.9328
C -6.0272 5.2371 -1.3067
C -5.7944 6.6111 -1.1755
C -4.6012 7.0826 -0.6914
C -3.6001 6.1724 -0.2899
C -2.3392 6.5908 0.1762
N -1.4061 5.7438 0.5569
C -1.6554 4.4101 0.5496
C -2.8343 3.8992 0.0874
C -3.8376 4.7713 -0.3817
H -6.9654 4.8919 -1.7138
H -6.567 7.3023 -1.4752
H -4.4185 8.1424 -0.6122
H -2.0982 7.65 0.2267
H -0.8583 3.7801 0.9381
H -3.0128 2.836 0.0726
C -5.529 0.3619 -1.5455
C -4.3804 -0.4316 -1.6529
C -4.4924 -1.7886 -1.8549
C -5.7551 -2.3853 -1.9466
C -6.9036 -1.589 -1.8541
C -6.7919 -0.23 -1.6586
H -3.4097 0.0321 -1.5781
H -3.6098 -2.4015 -1.94
H -7.8777 -2.0483 -1.9316
H -7.6779 0.3827 -1.5823
C -5.8864 -3.7787 -2.096
C -6.0101 -4.9799 -2.181
C -6.2377 -6.3674 -2.2086
C -7.5358 -6.8483 -2.2184
C -7.7976 -8.2209 -2.1778
C -6.7743 -9.1339 -2.1076
C -5.4391 -8.6926 -2.1016
C -4.3404 -9.5772 -2.0123
C -3.0683 -9.0842 -2.0265
N -2.8117 -7.7589 -2.1524
C -3.8098 -6.8999 -2.2176
C -5.1551 -7.2977 -2.1767
H -8.358 -6.1498 -2.2491
H -8.8225 -8.5591 -2.1886
H -6.9805 -10.1913 -2.0552
H -4.5201 -10.6373 -1.9301
H -2.2007 -9.7355 -1.9368
H -3.5569 -5.8462 -2.3145
C -0.597 2.1905 -5.7556
C -0.5113 3.371 -5.5047
C -0.4629 4.7359 -5.1651
C -0.8403 5.7129 -6.0703
C -0.848 7.0652 -5.7101
C -0.504 7.4612 -4.4429
C -0.1087 6.4968 -3.4916
C 0.2097 6.8315 -2.1615
N 0.5793 5.9336 -1.2729
C 0.7078 4.6319 -1.6346
C 0.396 4.1987 -2.8912
C -0.0571 5.1212 -3.856
H -1.1387 5.4249 -7.0669
H -1.1436 7.7992 -6.4439
H -0.5321 8.5024 -4.164
H 0.1482 7.864 -1.8266
H 1.0727 3.9627 -0.8578
H 0.4845 3.1588 -3.1613
C -0.7043 0.8132 -6.0264
C -0.4199 -0.1213 -5.0232
C -0.5311 -1.4689 -5.2801
C -0.9253 -1.9146 -6.547
C -1.2108 -0.9803 -7.5502
C -1.1031 0.3684 -7.2923
H -0.1093 0.2247 -4.0501
H -0.3027 -2.1915 -4.5133
H -1.514 -1.3244 -8.5278
H -1.3217 1.0887 -8.0664
C -1.0063 -3.2915 -6.8281
C -1.0475 -4.4758 -7.0748
C -1.0216 -5.8332 -7.4417
C -1.0411 -6.1832 -8.7807
C -0.9408 -7.5197 -9.1785
C -0.8007 -8.5242 -8.2529
C -0.7865 -8.2173 -6.8806
C -0.6296 -9.1998 -5.8767
C -0.6458 -8.8363 -4.5617
N -0.8398 -7.5518 -4.1723
C -0.9654 -6.6031 -5.0792
C -0.9242 -6.8631 -6.4578
H -1.1229 -5.4092 -9.5284
H -0.9597 -7.7553 -10.2317
H -0.7001 -9.552 -8.5645
H -0.4955 -10.231 -6.162
H -0.5046 -9.5644 -3.765
H -1.1155 -5.5866 -4.7219

