%chk=_s_5a1_d.chk
%mem=60000mb
%nprocshared=32

#P PBE1PBE/Def2SVP SP  SCF=(YQC,MaxCycle=900) int=(Grid=Superfinegrid) EmpiricalDispersion=GD3BJ SCRF=(PCM,Solvent=DiMethylSulfoxide)

_s_5a1_d

4 1
Pd 0.1041 5.1622 -0.2606
Pd -0.1562 -6.1506 0.3422
C 6.5327 -2.4485 0.3122
C 6.2805 -3.6059 0.5564
C 5.8838 -4.9346 0.8054
C 6.7939 -5.9223 1.1353
C 6.374 -7.2377 1.3681
C 5.0513 -7.5877 1.272
C 4.0917 -6.6104 0.9331
C 2.7184 -6.9047 0.8106
N 1.8255 -5.9958 0.4909
C 2.2109 -4.71 0.2659
C 3.5157 -4.3223 0.3584
C 4.5041 -5.2689 0.6983
H 7.8416 -5.6748 1.2157
H 7.112 -7.982 1.6254
H 4.7368 -8.6036 1.451
H 2.3617 -7.9142 0.9855
H 1.416 -4.0069 0.0006
H 3.8112 -3.3023 0.1718
C 6.7996 -1.1065 -0.0305
C 8.0331 -0.7705 -0.639
C 8.2703 0.5106 -1.0436
C 7.3006 1.5209 -0.8619
C 7.5033 2.844 -1.3044
C 6.5488 3.8013 -1.1165
C 5.3323 3.494 -0.462
C 5.1099 2.2068 -0.0265
C 6.0742 1.1963 -0.221
C 5.8466 -0.1323 0.1854
H 8.7738 -1.5423 -0.7861
H 9.2067 0.7686 -1.5168
H 8.4297 3.0883 -1.8031
H 6.7149 4.7985 -1.4934
H 4.206 1.9524 0.5051
H 4.9155 -0.3852 0.6692
C 4.3411 4.5602 -0.2633
C 4.7394 5.8768 -0.0104
C 3.7869 6.8734 0.1209
C 2.448 6.5394 0.0161
N 2.0651 5.2759 -0.1904
C 2.9692 4.3118 -0.334
H 5.7863 6.1147 0.0935
H 4.0815 7.8941 0.3042
H 1.664 7.2956 0.1024
H 2.5836 3.318 -0.5336
C 0.19 1.6898 6.5132
C 0.0585 2.8575 6.2273
C -0.0724 4.1934 5.8002
C -0.2151 5.2363 6.6975
C -0.3346 6.5578 6.2509
C -0.3091 6.8588 4.9129
C -0.1602 5.8239 3.9658
C -0.1149 6.0651 2.578
N 0.0299 5.1008 1.6993
C 0.1366 3.8092 2.1055
C 0.106 3.4697 3.4277
C -0.043 4.4753 4.4052
H -0.2359 5.0273 7.7564
H -0.4466 7.3459 6.9797
H -0.3995 7.8794 4.5768
H -0.2026 7.0772 2.1976
H 0.2537 3.0558 1.32
H 0.1984 2.4435 3.7456
C 0.3906 0.3278 6.8184
C 0.9876 -0.0352 8.05
C 1.2438 -1.3463 8.3263
C 0.9179 -2.361 7.3999
C 1.1989 -3.7205 7.646
C 0.8697 -4.6815 6.7345
C 0.2306 -4.3394 5.5192
C -0.0463 -3.0174 5.2533
C 0.2921 -2.0046 6.1745
C 0.0402 -0.646 5.9058
H 1.243 0.7388 8.7583
H 1.7063 -1.6264 9.2618
H 1.6854 -3.9907 8.5717
H 1.1214 -5.7118 6.9329
H -0.5621 -2.733 4.3492
H -0.4333 -0.3701 4.9761
C -0.1242 -5.4089 4.5762
C -0.5496 -6.6596 5.0349
C -0.8286 -7.6673 4.1273
C -0.6912 -7.4087 2.7753
N -0.3147 -6.2038 2.331
C -0.0345 -5.2308 3.1947
H -0.6712 -6.8355 6.0921
H -1.1486 -8.6396 4.4654
H -0.8882 -8.1755 2.0243
H 0.2933 -4.2885 2.7689
C -6.6681 -2.1625 -0.0345
C -6.47 -3.3498 -0.1527
C -6.1356 -4.7143 -0.2576
C -7.0913 -5.6888 -0.4806
C -6.7332 -7.0394 -0.5707
C -5.4275 -7.4376 -0.4364
C -4.4228 -6.4749 -0.2032
C -3.064 -6.8172 -0.0484
N -2.1292 -5.9214 0.1733
C -2.4542 -4.6025 0.2587
C -3.7402 -4.1674 0.1237
C -4.7723 -5.0983 -0.1139
H -8.1269 -5.4033 -0.588
H -7.5056 -7.7722 -0.7474
H -5.1607 -8.4802 -0.5052
H -2.7547 -7.855 -0.1137
H -1.6268 -3.9124 0.4481
H -3.9879 -3.1207 0.1996
C -6.8725 -0.7808 0.162
C -8.0881 -0.3255 0.7277
C -8.2654 1.001 0.9924
C -7.2507 1.9406 0.7067
C -7.3916 3.3113 1.0049
C -6.3946 4.1983 0.7186
C -5.1948 3.7675 0.104
C -5.0327 2.4323 -0.191
C -6.0419 1.4936 0.1075
C -5.8763 0.1201 -0.154
H -8.863 -1.0424 0.9543
H -9.188 1.3508 1.4326
H -8.3048 3.6497 1.472
H -6.514 5.2366 0.9864
H -4.1425 2.0814 -0.6898
H -4.9588 -0.2254 -0.6053
C -4.1561 4.7597 -0.2046
C -4.494 6.0588 -0.5972
C -3.4969 6.9909 -0.8315
C -2.1746 6.6087 -0.6882
N -1.8497 5.3581 -0.3474
C -2.7969 4.4574 -0.1043
H -5.5291 6.3322 -0.7287
H -3.7447 7.9987 -1.1233
H -1.3568 7.3146 -0.8525
H -2.457 3.4738 0.2009
C -0.1517 0.9962 -6.6272
C 0.0335 2.1805 -6.4664
C 0.226 3.5468 -6.1834
C 0.4153 4.4807 -7.186
C 0.5957 5.8353 -6.8821
C 0.5856 6.2779 -5.5839
C 0.3906 5.3576 -4.5326
C 0.3584 5.7471 -3.1785
N 0.1708 4.8894 -2.2027
C 0.0043 3.5681 -2.4695
C 0.0175 3.0888 -3.748
C 0.2112 3.9767 -4.8263
H 0.4254 4.1593 -8.2165
H 0.7428 6.5354 -7.6903
H 0.7231 7.3234 -5.358
H 0.4929 6.7888 -2.9076
H -0.1464 2.9089 -1.6087
H -0.1224 2.0399 -3.9551
C -0.415 -0.3799 -6.7869
C -1.0297 -0.8438 -7.9751
C -1.3466 -2.1636 -8.1117
C -1.0666 -3.0881 -7.0816
C -1.4105 -4.4516 -7.183
C -1.1249 -5.3246 -6.1735
C -0.4688 -4.8852 -4.9992
C -0.1307 -3.5566 -4.8742
C -0.4233 -2.6328 -5.8988
C -0.1086 -1.2664 -5.7749
H -1.2501 -0.1384 -8.7624
H -1.8228 -2.5198 -9.0138
H -1.9104 -4.7958 -8.0765
H -1.4243 -6.3573 -6.2623
H 0.3991 -3.2019 -4.0037
H 0.3784 -0.9154 -4.878
C -0.1625 -5.8636 -3.9467
C 0.2038 -7.1744 -4.2684
C 0.4373 -8.0916 -3.2578
C 0.3145 -7.6845 -1.9415
N -0.0051 -6.4231 -1.6291
C -0.2415 -5.5357 -2.5923
H 0.3153 -7.4672 -5.3005
H 0.7114 -9.1081 -3.4895
H 0.4772 -8.3753 -1.1125
H -0.5248 -4.5392 -2.2702

