%chk=_s_4b3_c.chk
%mem=60000mb
%nprocshared=32

#P PBE1PBE/Def2SVP SP  SCF=(YQC,MaxCycle=900) int=(Grid=Superfinegrid) EmpiricalDispersion=GD3BJ SCRF=(PCM,Solvent=DiMethylSulfoxide)

_s_4b3_c

4 1
Pd -0.8215 8.0436 -1.508
Pd 1.1297 -5.6014 0.1283
C 5.2696 -1.2783 0.8981
C 5.6186 -2.4326 1.0008
C 6.1056 -3.7499 1.082
C 7.4477 -3.9705 1.3378
C 7.9716 -5.2664 1.3764
C 7.1724 -6.3591 1.1476
C 5.8015 -6.1842 0.8859
C 4.9275 -7.2644 0.6274
C 3.6051 -7.0266 0.3894
N 3.085 -5.7747 0.409
C 3.8703 -4.7393 0.6326
C 5.2478 -4.8707 0.8665
H 8.1001 -3.1271 1.5049
H 9.0229 -5.4004 1.5805
H 7.5827 -7.3565 1.1636
H 5.3168 -8.2699 0.6184
H 2.908 -7.8334 0.1712
H 3.4076 -3.7545 0.6354
C 4.8809 0.0636 0.7228
C 3.5319 0.4059 0.5728
C 3.1721 1.714 0.3388
C 4.1531 2.7103 0.2605
C 5.5001 2.3743 0.4368
C 5.8598 1.0636 0.6622
H 2.7779 -0.3619 0.6399
H 2.1358 1.9821 0.2082
H 6.2555 3.1436 0.3849
H 6.899 0.7986 0.7861
C 3.7712 4.0395 -0.0009
C 3.4105 5.1685 -0.2412
C 2.9412 6.4722 -0.4867
C 3.7272 7.6085 -0.2489
C 3.1802 8.86 -0.468
C 1.8663 8.9628 -0.9003
N 1.1235 7.878 -1.1354
C 1.6374 6.6629 -0.9528
H 4.7402 7.4989 0.1061
H 3.7605 9.7518 -0.2946
H 1.3905 9.9257 -1.0652
H 0.9931 5.8151 -1.1812
C 0.0419 -1.5043 4.5198
C 0.2082 -2.6681 4.806
C 0.3326 -4.0036 5.2367
C 0.2446 -4.2931 6.5864
C 0.3021 -5.6125 7.0472
C 0.4371 -6.6607 6.1714
C 0.5443 -6.413 4.791
C 0.6818 -7.447 3.8374
C 0.8061 -7.1384 2.5144
N 0.8223 -5.8558 2.0731
C 0.6736 -4.8636 2.9286
C 0.5115 -5.0721 4.3078
H 0.1169 -3.4872 7.2928
H 0.2271 -5.8007 8.1072
H 0.4637 -7.6785 6.5276
H 0.6881 -8.4737 4.1669
H 0.9004 -7.9109 1.7528
H 0.6881 -3.8528 2.5265
C -0.1688 -0.1523 4.1791
C -1.0619 0.1848 3.1557
C -1.2759 1.5066 2.8329
C -0.599 2.5176 3.5247
C 0.2835 2.182 4.5571
C 0.4962 0.8593 4.881
H -1.594 -0.5959 2.6353
H -1.9731 1.7728 2.0542
H 0.7994 2.9626 5.0951
H 1.1773 0.5965 5.6761
C -0.7845 3.8636 3.1525
C -0.9247 5.0084 2.7893
C -1.0216 6.3324 2.3193
C -0.979 7.4383 3.1791
C -1.0229 8.7108 2.6374
C -1.0786 8.8629 1.2599
N -1.1206 7.8066 0.4435
C -1.1147 6.5733 0.9459
H -0.9099 7.2902 4.2456
H -0.9985 9.5803 3.2741
H -1.0894 9.8435 0.7913
H -1.1796 5.7508 0.2357
C -4.9363 3.7094 -2.3551
C -5.2813 4.8626 -2.4817
C -5.7653 6.1787 -2.5928
C -7.0981 6.3961 -2.8956
C -7.6207 7.6913 -2.9645
C -6.83 8.7865 -2.7191
C -5.4686 8.6149 -2.4098
C -4.6042 9.6981 -2.132
C -3.2902 9.4634 -1.8486
N -2.7691 8.212 -1.8405
C -3.5461 7.1739 -2.08
C -4.9154 7.3021 -2.3598
H -7.7443 5.5508 -3.0764
H -8.6646 7.8227 -3.2052
H -7.2398 9.7835 -2.7582
H -4.9941 10.7033 -2.1447
H -2.6012 10.2727 -1.6145
H -3.0831 6.1894 -2.0585
C -4.5533 2.3696 -2.1535
C -3.2087 2.0286 -1.9654
C -2.8557 0.7231 -1.7086
C -3.839 -0.2721 -1.644
C -5.181 0.0626 -1.8567
C -5.5342 1.3707 -2.106
H -2.4531 2.7955 -2.0218
H -1.8232 0.4561 -1.5492
H -5.938 -0.7058 -1.8151
H -6.5697 1.6347 -2.2587
C -3.4639 -1.5988 -1.3612
C -3.1092 -2.726 -1.1041
C -2.6442 -4.0278 -0.8417
C -3.4397 -5.1638 -1.0471
C -2.8957 -6.4143 -0.8148
C -1.5752 -6.5167 -0.4026
N -0.8232 -5.432 -0.1985
C -1.3341 -4.2175 -0.3929
H -4.4576 -5.0551 -1.388
H -3.4833 -7.3058 -0.963
H -1.1017 -7.4792 -0.229
H -0.6822 -3.3693 -0.1892
C 0.3178 3.9602 -5.8966
C 0.1751 5.1276 -6.1808
C 0.0793 6.4672 -6.6061
C 0.205 6.764 -7.9512
C 0.1758 8.0869 -8.4046
C 0.0313 9.1312 -7.5257
C -0.1137 8.8763 -6.1501
C -0.2635 9.9059 -5.1936
C -0.4244 9.5907 -3.8761
N -0.4653 8.3057 -3.4436
C -0.307 7.317 -4.3014
C -0.1091 7.5321 -5.675
H 0.3402 5.9609 -8.6595
H 0.2801 8.2807 -9.4612
H 0.0261 10.1514 -7.8758
H -0.25 10.9346 -5.5166
H -0.5294 10.3594 -3.1122
H -0.3428 6.3041 -3.9062
C 0.5033 2.6042 -5.5572
C -0.1683 1.6043 -6.2694
C 0.0213 0.2777 -5.9467
C 0.887 -0.0734 -4.9053
C 1.5699 0.9259 -4.2025
C 1.3789 2.2516 -4.5239
H -0.8361 1.879 -7.0717
H -0.4995 -0.4938 -6.493
H 2.2538 0.6476 -3.4164
H 1.9157 3.0232 -3.9949
C 1.0517 -1.4227 -4.5356
C 1.1771 -2.5695 -4.1734
C 1.2611 -3.8947 -3.7046
C 1.1788 -5.0001 -4.5624
C 1.2147 -6.273 -4.0211
C 1.3021 -6.4257 -2.6454
N 1.3812 -5.3701 -1.8309
C 1.3832 -4.1368 -2.3337
H 1.0863 -4.8511 -5.6269
H 1.1603 -7.1421 -4.6565
H 1.3085 -7.4062 -2.1765
H 1.4789 -3.3154 -1.6257

