%chk=_s_4c1_a.chk
%mem=60000mb
%nprocshared=32

#P PBE1PBE/Def2SVP SP  SCF=(YQC,MaxCycle=900) int=(Grid=Superfinegrid) EmpiricalDispersion=GD3BJ SCRF=(PCM,Solvent=DiMethylSulfoxide)

_s_4c1_a

4 1
Pd 0.4294 5.5555 0.0821
Pd -0.4378 -6.9108 -0.0099
C 4.2536 1.5128 1.7225
C 3.8798 2.2062 2.6408
C 3.5226 3.09 3.6793
C 4.0437 2.9515 4.9505
C 3.7766 3.9011 5.9439
C 3.0111 5.0102 5.6822
C 2.456 5.1921 4.4025
C 1.6877 6.3222 4.0413
C 1.1753 6.4261 2.7797
N 1.3448 5.4494 1.8534
C 2.0678 4.3853 2.1494
C 2.6823 4.2088 3.397
H 4.6857 2.1128 5.1703
H 4.2039 3.7658 6.9262
H 2.8356 5.7538 6.4436
H 1.5175 7.1019 4.7665
H 0.6035 7.2916 2.459
H 2.177 3.6206 1.3821
C 4.7704 0.7807 0.6306
C 5.6916 1.4346 -0.2089
C 6.2793 0.7837 -1.2702
C 5.9258 -0.5399 -1.4971
N 6.3608 -1.4011 -2.4688
C 5.751 -2.6117 -2.3037
C 5.8936 -3.7827 -3.0367
C 5.1591 -4.8803 -2.6471
C 4.2761 -4.8303 -1.5547
C 4.1257 -3.6521 -0.8284
C 4.8687 -2.5415 -1.1956
C 4.9846 -1.2053 -0.672
C 4.4072 -0.543 0.4014
H 5.951 2.4609 0.0016
H 6.9997 1.2846 -1.8975
H 7.0633 -1.1948 -3.1597
H 6.5618 -3.8355 -3.882
H 5.2443 -5.7937 -3.2148
H 3.4799 -3.6097 0.0335
H 3.703 -1.0363 1.0516
C 3.5237 -6.0366 -1.1963
C 4.1045 -7.3086 -1.266
C 3.3554 -8.4268 -0.9455
C 2.0346 -8.264 -0.5627
N 1.4793 -7.0527 -0.4896
C 2.1916 -5.9676 -0.7897
H 5.139 -7.4127 -1.553
H 3.7889 -9.4126 -0.9903
H 1.4031 -9.1114 -0.3051
H 1.6702 -5.015 -0.7199
C -1.4899 1.8936 4.1524
C -2.3549 2.6301 3.7362
C -3.326 3.5657 3.3252
C -4.6011 3.5558 3.8549
C -5.5221 4.5587 3.5296
C -5.1822 5.5951 2.6961
C -3.8956 5.6456 2.1297
C -3.4549 6.6953 1.2919
C -2.1918 6.6721 0.7731
N -1.3403 5.6412 1.0027
C -1.7113 4.6493 1.791
C -2.9652 4.6056 2.4164
H -4.8795 2.7775 4.5482
H -6.5094 4.5243 3.9652
H -5.8867 6.3814 2.4749
H -4.1207 7.5151 1.0738
H -1.8104 7.4737 0.1481
H -1.0029 3.8374 1.9472
C -0.4547 1.113 4.7131
C 0.4376 1.7556 5.5916
C 1.4485 1.062 6.2181
C 1.5706 -0.2945 5.9473
N 2.4751 -1.1999 6.4344
C 2.2137 -2.4294 5.9008
C 2.8547 -3.6426 6.1154
C 2.3777 -4.75 5.4502
C 1.2879 -4.6701 4.5661
C 0.6541 -3.4507 4.3435
C 1.1098 -2.3282 5.0163
C 0.6917 -0.9508 5.0494
C -0.3303 -0.2444 4.4325
H 0.3085 2.8092 5.7869
H 2.1163 1.5564 6.9058
H 3.1836 -1.0048 7.1224
H 3.6968 -3.7195 6.7853
H 2.8736 -5.6976 5.5915
H -0.2053 -3.3815 3.6967
H -1.0204 -0.7283 3.7605
C 0.8336 -5.8889 3.8897
C 0.8087 -7.1247 4.5474
C 0.3991 -8.2585 3.8687
C 0.0224 -8.1478 2.5407
N 0.0393 -6.9707 1.9123
C 0.4259 -5.8704 2.5562
H 1.0927 -7.1872 5.5861
H 0.3706 -9.2165 4.3619
H -0.3031 -9.0099 1.9627
H 0.4265 -4.949 1.9774
C -3.9174 2.1046 -1.6088
C -3.4503 2.7522 -2.5178
C -2.9737 3.5924 -3.5445
C -3.5084 3.5452 -4.8167
C -3.1117 4.4621 -5.7973
C -2.1999 5.4506 -5.5215
C -1.6255 5.5361 -4.2403
C -0.708 6.5437 -3.8647
C -0.1867 6.558 -2.6025
N -0.4905 5.6016 -1.6894
C -1.3539 4.6522 -1.9991
C -1.9865 4.5799 -3.248
H -4.2603 2.8066 -5.047
H -3.5532 4.401 -6.7807
H -1.9226 6.1732 -6.2728
H -0.4311 7.3022 -4.5794
H 0.4995 7.3313 -2.2708
H -1.5684 3.8995 -1.2422
C -4.531 1.4349 -0.5271
C -5.3529 2.1973 0.324
C -6.0255 1.6181 1.3763
C -5.8591 0.2549 1.5824
N -6.4097 -0.5523 2.5417
C -5.9736 -1.8331 2.3571
C -6.2777 -2.9842 3.0724
C -5.7023 -4.167 2.6648
C -4.8203 -4.2231 1.5719
C -4.5077 -3.0662 0.8634
C -5.0898 -1.8691 1.2486
C -5.019 -0.5219 0.7456
C -4.3551 0.0702 -0.3187
H -5.4672 3.2529 0.1296
H -6.6696 2.2044 2.0124
H -7.0769 -0.2612 3.237
H -6.9472 -2.9568 3.9179
H -5.9136 -5.0683 3.2187
H -3.862 -3.1006 0.001
H -3.726 -0.5059 -0.9776
C -4.2417 -5.5163 1.1943
C -4.9925 -6.6969 1.2459
C -4.4048 -7.9028 0.9078
C -3.0739 -7.9182 0.5256
N -2.3567 -6.7942 0.4697
C -2.9125 -5.6258 0.787
H -6.0317 -6.6614 1.5328
H -4.9703 -8.8199 0.9386
H -2.5653 -8.8408 0.2546
H -2.2646 -4.7534 0.7306
C 1.825 1.7219 -4.0434
C 2.7835 2.3246 -3.617
C 3.8748 3.1101 -3.1937
C 5.1366 2.9308 -3.7249
C 6.1878 3.7911 -3.3861
C 5.9947 4.8524 -2.5371
C 4.727 5.0729 -1.9685
C 4.4358 6.1613 -1.115
C 3.1813 6.3064 -0.5952
N 2.1949 5.4074 -0.839
C 2.4252 4.3852 -1.6421
C 3.6613 4.1768 -2.2693
H 5.3048 2.1316 -4.4298
H 7.1611 3.6263 -3.8235
H 6.8015 5.5297 -2.3053
H 5.2089 6.8773 -0.8856
H 2.9145 7.1441 0.0418
H 1.6108 3.6821 -1.8094
C 0.6921 1.1005 -4.6141
C -0.1021 1.8733 -5.4819
C -1.1987 1.3354 -6.1174
C -1.5074 0.005 -5.8665
N -2.5278 -0.7594 -6.366
C -2.4393 -2.021 -5.8511
C -3.2413 -3.1309 -6.0832
C -2.9223 -4.3033 -5.4352
C -1.8329 -4.3878 -4.5511
C -1.037 -3.271 -4.311
C -1.3327 -2.0865 -4.9664
C -0.7283 -0.7798 -4.9795
C 0.381 -0.2306 -4.3535
H 0.1716 2.9017 -5.6617
H -1.7911 1.9275 -6.7969
H -3.202 -0.458 -7.0501
H -4.0852 -3.0808 -6.7533
H -3.5441 -5.1712 -5.5902
H -0.1769 -3.3308 -3.6642
H 0.997 -0.8153 -3.6896
C -1.552 -5.6675 -3.8931
C -1.6971 -6.8851 -4.5687
C -1.4487 -8.0744 -3.9069
C -1.0616 -8.0361 -2.5779
N -0.9166 -6.8771 -1.9323
C -1.1471 -5.7248 -2.5598
H -1.986 -6.8927 -5.6079
H -1.5522 -9.0199 -4.414
H -0.8588 -8.9431 -2.0128
H -1.0212 -4.8206 -1.9676

