%chk=_s_5a1_b.chk
%mem=60000mb
%nprocshared=32

#P PBE1PBE/Def2SVP SP  SCF=(YQC,MaxCycle=900) int=(Grid=Superfinegrid) EmpiricalDispersion=GD3BJ SCRF=(PCM,Solvent=DiMethylSulfoxide)

_s_5a1_b

4 1
Pd 0.7911 6.6141 0.3298
Pd 0.509 -4.7861 -0.0041
C 7.035 -0.4457 0.8325
C 6.7074 -1.6086 0.8834
C 6.3571 -2.972 0.9192
C 7.3292 -3.9383 1.1129
C 7.0039 -5.2993 1.131
C 5.7107 -5.7156 0.9483
C 4.691 -4.7613 0.7448
C 3.3495 -5.1298 0.5369
N 2.3889 -4.2507 0.346
C 2.6718 -2.9234 0.3502
C 3.9451 -2.4607 0.5353
C 5.0031 -3.3718 0.7354
H 8.3555 -3.6339 1.2523
H 7.7896 -6.0222 1.2876
H 5.4642 -6.7653 0.9569
H 3.0777 -6.1824 0.5312
H 1.8217 -2.2606 0.1939
H 4.1614 -1.4043 0.5274
C 7.3713 0.9187 0.7198
C 8.6874 1.2915 0.3514
C 9.0044 2.6066 0.1714
C 8.0335 3.6179 0.3433
C 8.3095 4.9819 0.1144
C 7.338 5.9318 0.2559
C 6.0301 5.5739 0.6572
C 5.7471 4.2504 0.9131
C 6.7222 3.2489 0.7466
C 6.4148 1.8885 0.9324
H 9.4301 0.5213 0.2059
H 10.0057 2.8913 -0.1181
H 9.3059 5.265 -0.1921
H 7.5654 6.9629 0.0343
H 4.7746 3.9516 1.2717
H 5.4174 1.6076 1.2333
C 4.9845 6.5984 0.7729
C 5.2542 7.9113 1.1729
C 4.2233 8.8343 1.2368
C 2.9348 8.4337 0.9233
N 2.6721 7.177 0.5579
C 3.6584 6.2878 0.4712
H 6.257 8.2011 1.4446
H 4.4164 9.8519 1.5356
H 2.0923 9.1214 0.96
H 3.3828 5.2938 0.1267
C -0.8607 2.5491 6.5596
C -0.7709 3.7432 6.388
C -0.7288 5.116 6.0778
C -1.2203 6.0709 6.9506
C -1.2569 7.4232 6.591
C -0.8339 7.8391 5.3542
C -0.3176 6.8979 4.4386
C 0.0933 7.2496 3.1373
N 0.5916 6.3751 2.2918
C 0.7558 5.0797 2.6694
C 0.3509 4.6283 3.8916
C -0.2293 5.5267 4.8099
H -1.5891 5.7662 7.9183
H -1.6427 8.1405 7.2992
H -0.8914 8.8788 5.0739
H -0.0031 8.2746 2.7928
H 1.2323 4.4249 1.9383
H 0.4641 3.5938 4.173
C -1.0482 1.1648 6.7485
C -1.7701 0.7148 7.8813
C -2.0365 -0.613 8.041
C -1.6007 -1.56 7.0884
C -1.9 -2.9323 7.2066
C -1.4684 -3.8277 6.2716
C -0.6974 -3.4041 5.1629
C -0.3997 -2.0669 5.0225
C -0.8467 -1.1191 5.9669
C -0.5832 0.2563 5.8195
H -2.1119 1.4379 8.6067
H -2.5945 -0.9587 8.8992
H -2.4855 -3.2651 8.051
H -1.7398 -4.8675 6.3672
H 0.2121 -1.721 4.2037
H -0.022 0.5971 4.9633
C -0.2342 -4.411 4.1979
C 0.1221 -5.6959 4.6211
C 0.5015 -6.6485 3.6909
C 0.5382 -6.2995 2.3533
N 0.2357 -5.0617 1.9472
C -0.1445 -4.1414 2.831
H 0.1131 -5.9417 5.6713
H 0.7669 -7.6461 4.0013
H 0.8115 -7.0221 1.5833
H -0.3999 -3.1663 2.428
C -5.8132 2.481 -0.277
C -5.5388 3.6588 -0.2976
C -5.1627 5.0161 -0.2895
C -6.1022 6.026 -0.3948
C -5.7194 7.3725 -0.3652
C -4.4036 7.7313 -0.2245
C -3.4134 6.7314 -0.1127
C -2.047 7.0321 0.0396
N -1.1218 6.0995 0.1384
C -1.4687 4.79 0.098
C -2.7675 4.3923 -0.0387
C -3.7873 5.3577 -0.1498
H -7.1458 5.7709 -0.5012
H -6.4806 8.1326 -0.4523
H -4.1165 8.7704 -0.1978
H -1.7123 8.0671 0.0808
H -0.6538 4.0777 0.1834
H -3.0307 3.3472 -0.0616
C -6.1171 1.1064 -0.1955
C -7.42 0.6992 0.1822
C -7.7083 -0.6259 0.3318
C -6.7216 -1.6126 0.115
C -6.9765 -2.9865 0.3031
C -5.9993 -3.9178 0.0992
C -4.7048 -3.5303 -0.3205
C -4.4355 -2.1938 -0.5161
C -5.4215 -1.2109 -0.295
C -5.1435 0.1611 -0.4446
H -8.1747 1.4512 0.3581
H -8.6993 -0.9385 0.6278
H -7.962 -3.2923 0.6226
H -6.211 -4.9591 0.2855
H -3.47 -1.87 -0.8723
H -4.1563 0.4703 -0.7517
C -3.6766 -4.5604 -0.5242
C -4.0015 -5.8348 -1.0035
C -3.013 -6.795 -1.1333
C -1.71 -6.4693 -0.7979
N -1.3904 -5.2475 -0.3684
C -2.3355 -4.3169 -0.228
H -5.0173 -6.0651 -1.2835
H -3.2495 -7.7834 -1.4927
H -0.9023 -7.1921 -0.875
H -2.0045 -3.3523 0.1531
C -0.1617 3.1333 -6.2885
C -0.0869 4.3181 -6.0559
C -0.0412 5.6649 -5.6478
C -0.3947 6.7031 -6.4908
C -0.41 8.0261 -6.0328
C -0.1018 8.3307 -4.7311
C 0.2687 7.3011 -3.8404
C 0.5483 7.5348 -2.4781
N 0.9 6.574 -1.653
C 1.0428 5.3018 -2.1116
C 0.7623 4.9646 -3.403
C 0.3325 5.958 -4.3057
H -0.669 6.4893 -7.5127
H -0.6857 8.8117 -6.7197
H -0.1401 9.3499 -4.3808
H 0.4704 8.537 -2.0686
H 1.395 4.5636 -1.3885
H 0.8578 3.9487 -3.7505
C -0.2904 1.7537 -6.5484
C -0.8505 1.3203 -7.7746
C -1.0196 -0.0112 -8.0173
C -0.6376 -0.9783 -7.0617
C -0.8082 -2.3597 -7.2861
C -0.4064 -3.2753 -6.3573
C 0.1845 -2.8602 -5.1406
C 0.3386 -1.5168 -4.887
C -0.0606 -0.5505 -5.8349
C 0.0993 0.8283 -5.601
H -1.143 2.0571 -8.5077
H -1.4501 -0.3453 -8.9503
H -1.2599 -2.6834 -8.2122
H -0.5603 -4.3273 -6.5419
H 0.8103 -1.1798 -3.9768
H 0.5337 1.1577 -4.6698
C 0.6456 -3.8895 -4.1972
C 1.2767 -5.0434 -4.6721
C 1.6785 -6.0239 -3.7813
C 1.4409 -5.8372 -2.432
N 0.8518 -4.7278 -1.9708
C 0.466 -3.7749 -2.8184
H 1.4614 -5.1607 -5.7284
H 2.1662 -6.9198 -4.1299
H 1.7297 -6.589 -1.6967
H -0.0174 -2.9083 -2.3793

