%chk=trans_l3_ld_FINAL_BROKEN.chk
%nprocshared=48
%mem=120GB
# SP PBE1PBE/def2svp empiricaldispersion=GD3BJ scrf=(solvent=dmso)

trans_l3_ld

4 1
 Pd                 7.15530000    0.30100000   -0.12880000
 Pd                -7.19480000    0.64670000    0.06880000
 C                  3.07090000    1.19360000   -0.20680000
 C                  4.38640000    0.86210000   -0.45480000
 N                  5.28990000    0.71890000    0.52760000
 C                  4.91590000    0.93980000    1.79560000
 C                  3.61400000    1.27830000    2.12390000
 C                  2.64060000    1.38820000    1.11580000
 C                  1.24510000    1.65070000    1.42720000
 C                  0.69050000    2.00650000    2.64470000
 C                 -0.70860000    2.13110000    2.59590000
 C                 -1.23440000    1.87000000    1.34070000
 S                  0.01940000    1.48100000    0.21990000
 C                 -2.63630000    1.84270000    0.95360000
 C                 -3.05790000    1.66090000   -0.37480000
 C                 -4.40600000    1.52370000   -0.66350000
 N                 -5.34780000    1.54690000    0.29250000
 C                 -4.96820000    1.79270000    1.56050000
 C                 -3.64700000    1.95850000    1.92350000
 H                  2.38740000    1.28670000   -1.05170000
 H                  4.73020000    0.69580000   -1.47850000
 H                  5.67980000    0.82790000    2.56650000
 H                  3.36390000    1.42290000    3.17440000
 H                  1.27800000    2.18150000    3.54550000
 H                 -1.31370000    2.41300000    3.45690000
 H                 -2.34190000    1.60530000   -1.19650000
 H                 -4.74390000    1.36100000   -1.68810000
 H                 -5.75680000    1.82050000    2.31590000
 H                 -3.41610000    2.12570000    2.97440000
 C                  2.80800000   -2.55530000   -1.40640000
 C                  4.12790000   -2.42610000   -0.99830000
 N                  4.48560000   -2.17270000    0.26200000
 C                  3.52000000   -2.05160000    1.16850000
 C                  2.16790000   -2.15950000    0.86510000
 C                  1.78260000   -2.41750000   -0.45700000
 C                  0.38020000   -2.52060000   -0.84280000
 C                 -0.14930000   -2.85370000   -2.07770000
 C                 -1.55490000   -2.80140000   -2.10800000
 C                 -2.10840000   -2.43770000   -0.89210000
 S                 -0.87420000   -2.16580000    0.28790000
 C                 -3.49180000   -2.13380000   -0.58760000
 C                 -3.94540000   -1.92490000    0.72840000
 C                 -5.19100000   -1.36530000    0.94630000
 N                 -5.99870000   -1.01610000   -0.06770000
 C                 -5.64260000   -1.35160000   -1.32200000
 C                 -4.42350000   -1.92410000   -1.61910000
 H                  2.58730000   -2.75530000   -2.45500000
 H                  4.93810000   -2.52850000   -1.72750000
 H                  3.83190000   -1.85670000    2.19960000
 H                  1.42910000   -2.04750000    1.66150000
 H                  0.45920000   -3.13270000   -2.93710000
 H                 -2.14680000   -3.03210000   -2.99350000
 H                 -3.30930000   -2.14180000    1.58810000
 H                 -5.53570000   -1.13190000    1.95530000
 H                 -6.33500000   -1.08340000   -2.12380000
 H                 -4.17250000   -2.11120000   -2.66240000
 C                -10.09480000    3.74280000   -0.72750000
 C                 -9.47470000    4.93660000   -0.27730000
 C                 -8.12650000    4.83010000    0.16450000
 C                 -7.36700000    5.99280000    0.50480000
 C                 -8.02490000    7.20650000    0.53750000
 C                 -9.38900000    7.30380000    0.17450000
 C                -10.09910000    6.20570000   -0.26020000
 C                 -5.90300000    5.86630000    0.68920000
 C                 -5.23730000    6.28520000    1.84820000
 C                 -3.86020000    6.12860000    1.97150000
 C                 -3.10890000    5.56010000    0.92600000
 C                 -1.69860000    5.40520000    1.00280000
 C                 -0.48580000    5.26650000    0.99420000
 C                  0.91330000    5.15350000    0.93290000
 C                  1.83990000    5.26600000    1.95930000
 C                  3.17050000    5.16470000    1.51380000
 C                  3.27370000    4.97630000    0.14180000
 C                  4.44780000    4.88320000   -0.62690000
 C                  5.48500000    4.82250000   -1.26930000
 C                  6.73800000    4.63310000   -1.91660000
 C                  7.93010000    4.96190000   -1.24140000
 C                  9.15580000    4.53530000   -1.73650000
 C                  9.22520000    3.77520000   -2.91270000
 C                 10.39100000    2.87170000   -3.11590000
 C                 10.28860000    1.62760000   -2.41430000
 C                 11.31730000    0.64610000   -2.46560000
 C                 11.11670000   -0.54900000   -1.72370000
 C                  9.96710000   -0.73760000   -0.99480000
 N                  8.99560000    0.21430000   -0.96820000
 C                  9.15410000    1.33770000   -1.63930000
 C                 12.46480000    0.92700000   -3.24790000
 C                 12.55090000    2.12330000   -3.92530000
 C                 11.52220000    3.09940000   -3.86370000
 C                  8.05670000    3.58640000   -3.66370000
 C                  6.82500000    4.01100000   -3.17660000
 S                  1.70340000    4.89860000   -0.59380000
 C                 -3.77610000    5.15330000   -0.24520000
 C                 -5.14830000    5.30180000   -0.35440000
 C                 -7.57300000    3.54340000    0.29130000
 N                 -8.19140000    2.43950000   -0.08740000
 C                 -9.42930000    2.54710000   -0.65680000
 H                -11.10250000    3.76910000   -1.14530000
 H                 -7.47250000    8.11280000    0.79500000
 H                 -9.87180000    8.28320000    0.20080000
 H                -11.13520000    6.30200000   -0.59030000
 H                 -5.80740000    6.72100000    2.67160000
 H                 -3.35450000    6.44800000    2.88440000
 H                  1.54640000    5.42540000    2.99670000
 H                  4.04480000    5.23650000    2.16050000
 H                  7.87970000    5.48630000   -0.28560000
 H                 10.06220000    4.70440000   -1.15040000
 H                 11.87690000   -1.33200000   -1.73150000
 H                  9.78230000   -1.64660000   -0.42120000
 H                  8.34420000    2.07000000   -1.57780000
 H                 13.27080000    0.19300000   -3.30700000
 H                 13.43700000    2.33520000   -4.52790000
 H                 11.63510000    4.03670000   -4.41200000
 H                  8.09870000    3.00910000   -4.59030000
 H                  5.91230000    3.78930000   -3.73280000
 H                 -3.20320000    4.72430000   -1.06890000
 H                 -5.64930000    4.98880000   -1.27360000
 H                 -6.58640000    3.44340000    0.73300000
 H                 -9.87370000    1.63050000   -1.04170000
 C                -11.14280000   -0.83870000    0.92770000
 C                -11.17350000   -2.12540000    0.32990000
 C                 -9.96460000   -2.58870000   -0.25990000
 C                 -9.84620000   -3.92790000   -0.74820000
 C                -10.98540000   -4.70710000   -0.77830000
 C                -12.21300000   -4.21720000   -0.27270000
 C                -12.30830000   -2.96980000    0.30550000
 C                 -8.49700000   -4.44370000   -1.07550000
 C                 -8.15420000   -4.97020000   -2.32710000
 C                 -6.84980000   -5.37760000   -2.59300000
 C                 -5.85560000   -5.27900000   -1.60250000
 C                 -4.49710000   -5.62720000   -1.83090000
 C                 -3.30200000   -5.86030000   -1.92370000
 C                 -1.91080000   -6.05640000   -1.93070000
 C                 -1.05820000   -6.35240000   -2.98460000
 C                  0.29630000   -6.39370000   -2.60200000
 C                  0.48800000   -6.12990000   -1.25270000
 C                  1.68570000   -6.00810000   -0.52820000
 C                  2.68910000   -5.81930000    0.14120000
 C                  3.81700000   -5.46420000    0.92870000
 C                  5.09210000   -5.31500000    0.35390000
 C                  6.14390000   -4.80790000    1.10460000
 C                  5.96140000   -4.45700000    2.44990000
 C                  7.05790000   -3.86600000    3.25130000
 C                  7.65400000   -2.61310000    2.89770000
 C                  8.71950000   -2.08240000    3.68820000
 C                  9.27680000   -0.83800000    3.30100000
 C                  8.78650000   -0.17230000    2.21320000
 N                  7.74520000   -0.68320000    1.49140000
 C                  7.18980000   -1.84370000    1.80500000
 C                  9.16780000   -2.79170000    4.82570000
 C                  8.56190000   -3.97840000    5.16840000
 C                  7.51280000   -4.50920000    4.38740000
 C                  4.70930000   -4.67590000    3.04130000
 C                  3.64750000   -5.16430000    2.29350000
 S                 -1.02450000   -5.84310000   -0.45350000
 C                 -6.21030000   -4.78810000   -0.33080000
 C                 -7.50720000   -4.37610000   -0.07880000
 C                 -8.89550000   -1.68120000   -0.37110000
 N                 -8.90730000   -0.47240000    0.15980000
 C                -10.00860000   -0.07220000    0.86310000
 H                -12.01760000   -0.45660000    1.45630000
 H                -10.92750000   -5.73390000   -1.14610000
 H                -13.09090000   -4.86630000   -0.30290000
 H                -13.24620000   -2.62540000    0.74550000
 H                 -8.91020000   -5.03220000   -3.11310000
 H                 -6.58930000   -5.76180000   -3.58070000
 H                 -1.41740000   -6.51640000   -4.00050000
 H                  1.12380000   -6.59390000   -3.28250000
 H                  5.24010000   -5.56200000   -0.69860000
 H                  7.12170000   -4.67110000    0.63700000
 H                 10.09730000   -0.40070000    3.87190000
 H                  9.19220000    0.78420000    1.88480000
 H                  6.32690000   -2.15780000    1.19420000
 H                  9.98460000   -2.38250000    5.42330000
 H                  8.89780000   -4.52780000    6.05050000
 H                  7.06190000   -5.46190000    4.67330000
 H                  4.55780000   -4.41780000    4.09180000
 H                  2.66450000   -5.28600000    2.75160000
 H                 -5.45210000   -4.72490000    0.45170000
 H                 -7.76420000   -3.99260000    0.91140000
 H                 -8.01170000   -1.97940000   -0.92770000
 H                 -9.94950000    0.89850000    1.35500000

 1 5 1.0 85 1.0 148 1.0
 2 17 1.0 44 1.0 96 1.0 159 1.0
 3 4 2.0 8 1.5 20 1.0
 4 5 1.5 21 1.0
 5 6 1.5
 6 7 2.0 22 1.0
 7 8 1.5 23 1.0
 8 9 1.0
 9 10 2.0 13 1.0
 10 11 1.5 24 1.0
 11 12 2.0 25 1.0
 12 13 1.0 14 1.0
 13
 14 15 1.5 19 1.5
 15 16 2.0 26 1.0
 16 17 1.5 27 1.0
 17 18 1.5
 18 19 2.0 28 1.0
 19 29 1.0
 20
 21
 22
 23
 24
 25
 26
 27
 28
 29
 30 31 1.5 35 1.5 47 1.0
 31 32 1.5 48 1.0
 32 33 1.5
 33 34 1.5 49 1.0
 34 35 1.5 50 1.0
 35 36 1.0
 36 37 2.0 40 1.0
 37 38 1.5 51 1.0
 38 39 2.0 52 1.0
 39 40 1.0 41 1.0
 40
 41 42 1.5 46 1.5
 42 43 2.0 53 1.0
 43 44 1.5 54 1.0
 44 45 1.5
 45 46 2.0 55 1.0
 46 56 1.0
 47
 48
 49
 50
 51
 52
 53
 54
 55
 56
 57 58 1.5 97 2.0 98 1.0
 58 59 1.5 63 1.5
 59 60 1.5 95 1.5
 60 61 2.0 64 1.0
 61 62 1.5 99 1.0
 62 63 2.0 100 1.0
 63 101 1.0
 64 65 1.5 94 1.5
 65 66 1.5 102 1.0
 66 67 1.5 103 1.0
 67 68 1.5 93 1.5
 68 69 3.0
 69 70 1.5
 70 71 1.5 92 1.0
 71 72 1.5 104 1.0
 72 73 1.5 105 1.0
 73 74 1.5 92 1.0
 74 75 3.0
 75 76 1.5
 76 77 1.5 91 1.5
 77 78 1.5 106 1.0
 78 79 1.5 107 1.0
 79 80 1.0 90 1.5
 80 81 1.5 89 2.0
 81 82 1.5 86 1.5
 82 83 1.5 87 1.5
 83 84 2.0 108 1.0
 84 85 1.5 109 1.0
 85 86 2.0
 86 110 1.0
 87 88 2.0 111 1.0
 88 89 1.5 112 1.0
 89 113 1.0
 90 91 1.5 114 1.0
 91 115 1.0
 92
 93 94 2.0 116 1.0
 94 117 1.0
 95 96 2.0 118 1.0
 96 97 1.5
 97 119 1.0
 98
 99
 100
 101
 102
 103
 104
 105
 106
 107
 108
 109
 110
 111
 112
 113
 114
 115
 116
 117
 118
 119
 120 121 1.5 160 2.0 161 1.0
 121 122 1.5 126 1.5
 122 123 1.5 158 1.5
 123 124 2.0 127 1.0
 124 125 1.5 162 1.0
 125 126 2.0 163 1.0
 126 164 1.0
 127 128 1.5 157 1.5
 128 129 1.5 165 1.0
 129 130 1.5 166 1.0
 130 131 1.5 156 1.5
 131 132 3.0
 132 133 1.5
 133 134 1.5 155 1.0
 134 135 1.5 167 1.0
 135 136 1.5 168 1.0
 136 137 1.5 155 1.0
 137 138 3.0
 138 139 1.5
 139 140 1.5 154 1.5
 140 141 1.5 169 1.0
 141 142 1.5 170 1.0
 142 143 1.0 153 1.5
 143 144 1.5 152 2.0
 144 145 1.5 149 1.5
 145 146 1.5 150 1.5
 146 147 2.0 171 1.0
 147 148 1.5 172 1.0
 148 149 1.5
 149 173 1.0
 150 151 2.0 174 1.0
 151 152 1.5 175 1.0
 152 176 1.0
 153 154 1.5 177 1.0
 154 178 1.0
 155
 156 157 2.0 179 1.0
 157 180 1.0
 158 159 2.0 181 1.0
 159 160 1.5
 160 182 1.0
 161
 162
 163
 164
 165
 166
 167
 168
 169
 170
 171
 172
 173
 174
 175
 176
 177
 178
 179
 180
 181
 182

