%chk=cis_l2_lb_FINAL.chk
%nprocshared=48
%mem=120GB
# SP PBE1PBE/def2svp empiricaldispersion=GD3BJ scrf=(solvent=dmso)

cis_l2_lb

4 1
 Pd                -6.10100000   -2.33550000    0.27510000
 Pd                 6.07520000   -2.45070000    0.16800000
 C                  0.00010000   -4.90750000    5.63040000
 C                  1.21090000   -4.54990000    5.04180000
 C                  1.22330000   -3.74070000    3.89780000
 C                  0.00700000   -3.30490000    3.36150000
 C                 -1.21420000   -3.68720000    3.92720000
 C                 -1.20760000   -4.49330000    5.07390000
 C                 -2.46750000   -3.28810000    3.25740000
 C                 -2.58760000   -2.04070000    2.62810000
 C                 -3.71680000   -1.75410000    1.88170000
 N                 -4.71680000   -2.63660000    1.73940000
 C                 -4.65690000   -3.80640000    2.39160000
 C                 -3.55950000   -4.16130000    3.16050000
 C                  2.47610000   -3.38470000    3.20300000
 C                  2.64460000   -2.11870000    2.62500000
 C                  3.76810000   -1.85770000    1.86130000
 N                  4.71450000   -2.78470000    1.64930000
 C                  4.60770000   -3.97960000    2.24730000
 C                  3.51470000   -4.31000000    3.03410000
 H                 -0.00240000   -5.52120000    6.53340000
 H                  2.15100000   -4.88750000    5.48340000
 H                  0.00970000   -2.71790000    2.44070000
 H                 -2.14940000   -4.78690000    5.54240000
 H                 -1.80050000   -1.28980000    2.70450000
 H                 -3.81960000   -0.79920000    1.36130000
 H                 -5.50160000   -4.48610000    2.26050000
 H                 -3.54040000   -5.14520000    3.63070000
 H                  1.90050000   -1.33250000    2.75720000
 H                  3.90950000   -0.88530000    1.38410000
 H                  5.40850000   -4.69770000    2.05960000
 H                  3.45470000   -5.31110000    3.46300000
 C                 -0.08300000   -6.65350000   -3.95320000
 C                  1.13420000   -6.09450000   -3.57100000
 C                  1.15910000   -4.93950000   -2.77720000
 C                 -0.05320000   -4.36310000   -2.38370000
 C                 -1.27950000   -4.93360000   -2.74070000
 C                 -1.28550000   -6.08990000   -3.53240000
 C                 -2.52200000   -4.32970000   -2.22110000
 C                 -2.64770000   -2.93900000   -2.09810000
 C                 -3.76210000   -2.40250000   -1.47920000
 N                 -4.74190000   -3.17470000   -0.98650000
 C                 -4.67690000   -4.50330000   -1.15370000
 C                 -3.59380000   -5.11170000   -1.77000000
 C                  2.42030000   -4.34860000   -2.28830000
 C                  2.55630000   -2.96150000   -2.13490000
 C                  3.69060000   -2.44390000   -1.53560000
 N                  4.68170000   -3.23200000   -1.09330000
 C                  4.60770000   -4.55530000   -1.29600000
 C                  3.50370000   -5.14460000   -1.89260000
 H                 -0.09470000   -7.54320000   -4.58590000
 H                  2.06890000   -6.55040000   -3.90450000
 H                 -0.04200000   -3.49240000   -1.72520000
 H                 -2.23280000   -6.54160000   -3.83490000
 H                 -1.87660000   -2.26550000   -2.47340000
 H                 -3.86560000   -1.32320000   -1.35140000
 H                 -5.50340000   -5.09250000   -0.75110000
 H                 -3.56880000   -6.19980000   -1.84110000
 H                  1.77710000   -2.27570000   -2.46890000
 H                  3.80080000   -1.36830000   -1.38180000
 H                  5.44540000   -5.15700000   -0.93760000
 H                  3.47340000   -6.23040000   -1.99000000
 C                 -9.41940000   -2.49660000   -2.39930000
 C                 -8.48010000   -2.79990000   -1.44970000
 N                 -7.41880000   -1.98000000   -1.21810000
 C                 -7.27900000   -0.86090000   -1.90370000
 C                 -8.20650000   -0.44000000   -2.87770000
 C                 -8.04170000    0.78420000   -3.59900000
 C                 -6.90320000    1.68400000   -3.30350000
 C                 -6.70070000    2.20620000   -2.01600000
 C                 -5.59720000    3.00180000   -1.73620000
 C                 -4.66070000    3.29500000   -2.74270000
 C                 -3.49630000    4.07170000   -2.46490000
 C                 -2.47890000    4.71050000   -2.26720000
 C                 -1.27700000    5.47210000   -2.08080000
 N                 -0.11940000    4.81010000   -2.18310000
 C                  1.02030000    5.49860000   -2.04560000
 C                  2.24110000    4.76440000   -2.18550000
 C                  3.27710000    4.14310000   -2.34060000
 C                  4.45360000    3.37540000   -2.57160000
 C                  5.73630000    3.90910000   -2.35310000
 C                  6.86930000    3.14820000   -2.61640000
 C                  6.75710000    1.83620000   -3.09810000
 C                  7.95600000    1.02290000   -3.40070000
 C                  8.94140000    1.48510000   -4.25210000
 C                 10.04180000    0.67390000   -4.61090000
 C                 10.16770000   -0.61080000   -4.13290000
 C                  9.20320000   -1.11740000   -3.23020000
 C                  9.27210000   -2.41720000   -2.66700000
 C                  8.33700000   -2.82320000   -1.75150000
 N                  7.34300000   -1.98910000   -1.34050000
 C                  7.23180000   -0.78120000   -1.86060000
 C                  8.10910000   -0.28660000   -2.84520000
 C                  5.47420000    1.30580000   -3.31520000
 C                  4.33930000    2.05920000   -3.05670000
 C                  1.04930000    6.88240000   -1.80060000
 C                 -0.15850000    7.56060000   -1.69790000
 C                 -1.34700000    6.85280000   -1.83440000
 C                 -4.87770000    2.79710000   -4.03960000
 C                 -5.98670000    2.00720000   -4.31310000
 C                 -8.95450000    1.08270000   -4.59190000
 C                -10.04420000    0.22680000   -4.87030000
 C                -10.23330000   -0.93870000   -4.16360000
 C                 -9.31120000   -1.30070000   -3.15320000
 H                -10.25100000   -3.18100000   -2.57400000
 H                 -8.53390000   -3.70910000   -0.84890000
 H                 -6.39500000   -0.25810000   -1.68830000
 H                 -7.42060000    1.99380000   -1.22160000
 H                 -5.45280000    3.39890000   -0.73030000
 H                  5.83740000    4.92700000   -1.97310000
 H                  7.85900000    3.57170000   -2.43150000
 H                  8.84870000    2.48290000   -4.68620000
 H                 10.79000000    1.07310000   -5.29900000
 H                 11.00530000   -1.24320000   -4.43350000
 H                 10.07690000   -3.09600000   -2.95340000
 H                  8.35780000   -3.81580000   -1.30000000
 H                  6.43540000   -0.14440000   -1.47390000
 H                  5.36460000    0.29500000   -3.71540000
 H                  3.34930000    1.63850000   -3.24160000
 H                  2.00390000    7.39950000   -1.69730000
 H                 -0.17420000    8.63560000   -1.50980000
 H                 -2.31650000    7.34620000   -1.75610000
 H                 -4.16010000    3.02480000   -4.82980000
 H                 -6.13200000    1.60810000   -5.31940000
 H                 -8.84370000    2.00990000   -5.15820000
 H                -10.75010000    0.50730000   -5.65500000
 H                -11.08150000   -1.59280000   -4.37450000
 C                 -9.38170000   -1.45310000    2.83200000
 C                 -8.43000000   -2.09220000    2.08470000
 N                 -7.38770000   -1.41110000    1.53520000
 C                 -7.24620000   -0.11630000    1.75320000
 C                 -8.13900000    0.62620000    2.55470000
 C                 -7.96210000    2.02460000    2.80940000
 C                 -6.73850000    2.75560000    2.41240000
 C                 -5.46200000    2.24450000    2.70300000
 C                 -4.31850000    2.97980000    2.42530000
 C                 -4.41550000    4.26400000    1.85830000
 C                 -3.23930000    5.04110000    1.65730000
 C                 -2.21300000    5.68980000    1.56100000
 C                 -0.99590000    6.44360000    1.52770000
 N                  0.14260000    5.74190000    1.49390000
 C                  1.30160000    6.41050000    1.50560000
 C                  2.49670000    5.62180000    1.51950000
 C                  3.50530000    4.94410000    1.59940000
 C                  4.66180000    4.13300000    1.78140000
 C                  4.54720000    2.89460000    2.43990000
 C                  5.67520000    2.13110000    2.70340000
 C                  6.95070000    2.57130000    2.31170000
 C                  8.16140000    1.80460000    2.67990000
 C                  9.21300000    2.43490000    3.32040000
 C                 10.34510000    1.71760000    3.76480000
 C                 10.43860000    0.35690000    3.58470000
 C                  9.40490000   -0.32990000    2.90600000
 C                  9.44540000   -1.72440000    2.65550000
 C                  8.44550000   -2.32370000    1.93790000
 N                  7.40880000   -1.60190000    1.43100000
 C                  7.32070000   -0.30550000    1.66600000
 C                  8.27280000    0.39960000    2.43070000
 C                  7.05810000    3.79310000    1.63030000
 C                  5.93410000    4.56570000    1.36780000
 C                  1.37220000    7.81380000    1.54440000
 C                  0.18400000    8.53390000    1.57830000
 C                 -1.02490000    7.84850000    1.56940000
 C                 -5.69020000    4.77210000    1.54850000
 C                 -6.82920000    4.02500000    1.81970000
 C                 -8.96200000    2.68830000    3.49870000
 C                -10.10440000    2.01470000    3.98150000
 C                -10.25820000    0.66040000    3.79700000
 C                 -9.27830000   -0.06080000    3.07570000
 H                -10.22380000   -2.01860000    3.23390000
 H                 -8.47350000   -3.16280000    1.88050000
 H                 -6.40780000    0.37940000    1.26080000
 H                 -5.36030000    1.27520000    3.19620000
 H                 -3.33620000    2.57620000    2.67700000
 H                  3.56570000    2.55110000    2.77140000
 H                  5.56660000    1.19780000    3.26080000
 H                  9.14890000    3.50630000    3.52160000
 H                 11.14450000    2.25550000    4.27880000
 H                 11.30220000   -0.20150000    3.95090000
 H                 10.27990000   -2.32360000    3.02310000
 H                  8.44490000   -3.39310000    1.72340000
 H                  6.48100000    0.22580000    1.21340000
 H                  8.03970000    4.14180000    1.30210000
 H                  6.03550000    5.51940000    0.84690000
 H                  2.34210000    8.31250000    1.55310000
 H                  0.19990000    9.62520000    1.61100000
 H                 -1.97950000    8.37510000    1.59650000
 H                 -5.78000000    5.76140000    1.09640000
 H                 -7.81040000    4.43260000    1.56730000
 H                 -8.84550000    3.75300000    3.71130000
 H                -10.86030000    2.58020000    4.53060000
 H                -11.12700000    0.13240000    4.19430000

 1 12 1.0 42 1.0 65 1.0 130 1.0
 2 18 1.0 48 1.0 91 1.0 156 1.0
 3 4 1.5 8 1.5 21 1.0
 4 5 1.5 22 1.0
 5 6 1.5 15 1.0
 6 7 1.5 23 1.0
 7 8 1.5 9 1.0
 8 24 1.0
 9 10 1.5 14 1.5
 10 11 2.0 25 1.0
 11 12 1.5 26 1.0
 12 13 1.5
 13 14 1.5 27 1.0
 14 28 1.0
 15 16 1.5 20 1.5
 16 17 2.0 29 1.0
 17 18 1.5 30 1.0
 18 19 1.5
 19 20 1.5 31 1.0
 20 32 1.0
 21
 22
 23
 24
 25
 26
 27
 28
 29
 30
 31
 32
 33 34 1.5 38 1.5 51 1.0
 34 35 1.5 52 1.0
 35 36 1.5 45 1.0
 36 37 1.5 53 1.0
 37 38 1.5 39 1.0
 38 54 1.0
 39 40 1.5 44 1.5
 40 41 2.0 55 1.0
 41 42 1.5 56 1.0
 42 43 1.5
 43 44 1.5 57 1.0
 44 58 1.0
 45 46 1.5 50 1.5
 46 47 2.0 59 1.0
 47 48 1.5 60 1.0
 48 49 1.5
 49 50 1.5 61 1.0
 50 62 1.0
 51
 52
 53
 54
 55
 56
 57
 58
 59
 60
 61
 62
 63 64 2.0 104 1.5 105 1.0
 64 65 1.5 106 1.0
 65 66 2.0
 66 67 1.5 107 1.0
 67 68 1.5 104 1.5
 68 69 1.0 101 2.0
 69 70 1.5 100 1.5
 70 71 1.5 108 1.0
 71 72 1.5 109 1.0
 72 73 1.5 99 1.5
 73 74 3.0
 74 75 1.5
 75 76 1.5 98 1.5
 76 77 1.5
 77 78 1.5 96 1.5
 78 79 3.0
 79 80 1.5
 80 81 1.5 95 1.5
 81 82 1.5 110 1.0
 82 83 1.5 111 1.0
 83 84 1.0 94 1.5
 84 85 2.0 93 1.5
 85 86 1.5 112 1.0
 86 87 2.0 113 1.0
 87 88 1.5 114 1.0
 88 89 1.5 93 1.5
 89 90 2.0 115 1.0
 90 91 1.5 116 1.0
 91 92 2.0
 92 93 1.5 117 1.0
 93
 94 95 1.5 118 1.0
 95 119 1.0
 96 97 1.5 120 1.0
 97 98 1.5 121 1.0
 98 122 1.0
 99 100 1.5 123 1.0
 100 124 1.0
 101 102 1.5 125 1.0
 102 103 2.0 126 1.0
 103 104 1.5 127 1.0
 104
 105
 106
 107
 108
 109
 110
 111
 112
 113
 114
 115
 116
 117
 118
 119
 120
 121
 122
 123
 124
 125
 126
 127
 128 129 2.0 169 1.5 170 1.0
 129 130 1.5 171 1.0
 130 131 2.0
 131 132 1.5 172 1.0
 132 133 1.5 169 1.5
 133 134 1.0 166 2.0
 134 135 1.5 165 1.5
 135 136 1.5 173 1.0
 136 137 1.5 174 1.0
 137 138 1.5 164 1.5
 138 139 3.0
 139 140 1.5
 140 141 1.5 163 1.5
 141 142 1.5
 142 143 1.5 161 1.5
 143 144 3.0
 144 145 1.5
 145 146 1.5 160 1.5
 146 147 1.5 175 1.0
 147 148 1.5 176 1.0
 148 149 1.0 159 1.5
 149 150 2.0 158 1.5
 150 151 1.5 177 1.0
 151 152 2.0 178 1.0
 152 153 1.5 179 1.0
 153 154 1.5 158 1.5
 154 155 2.0 180 1.0
 155 156 1.5 181 1.0
 156 157 2.0
 157 158 1.5 182 1.0
 158
 159 160 1.5 183 1.0
 160 184 1.0
 161 162 1.5 185 1.0
 162 163 1.5 186 1.0
 163 187 1.0
 164 165 1.5 188 1.0
 165 189 1.0
 166 167 1.5 190 1.0
 167 168 2.0 191 1.0
 168 169 1.5 192 1.0
 169
 170
 171
 172
 173
 174
 175
 176
 177
 178
 179
 180
 181
 182
 183
 184
 185
 186
 187
 188
 189
 190
 191
 192

