! DFT SP RKS PBE0 def2-SVP D3BJ Grid6 NOFINALGRID SlowConv TightSCF printbasis 

%base "_s_4b3_c_PBE0"
%maxcore 3000
%scf
   MaxIter 2000
end
%pal
   nprocs 32
end

* xyzfile 4 1 s_4b3_c.xyz
