! DFT SP B97-3c TightSCF printbasis  Grid6 NOFINALGRID SlowConv 

%base "_s_4c3_d_B97-3c"
%maxcore 3000
%scf
   MaxIter 2000
end
%pal
   nprocs 32
end

* xyzfile 4 1 s_4c3_d.xyz
