! DFT SP B97-3c TightSCF printbasis  Grid6 NOFINALGRID SlowConv 

%base "_s_5d1_a_B97-3c"
%maxcore 3000
%scf
   MaxIter 2000
end
%pal
   nprocs 32
end

* xyzfile 4 1 s_5d1_a.xyz
