%chk=_s_5d3_c.chk
%mem=60000mb
%nprocshared=32

#P PBE1PBE/Def2SVP SP  SCF=(YQC,MaxCycle=900) int=(Grid=Superfinegrid) EmpiricalDispersion=GD3BJ SCRF=(PCM,Solvent=DiMethylSulfoxide)

_s_5d3_c

4 1
Pd -0.072 5.4816 -0.2954
Pd 0.1742 -5.4093 -0.5692
C 6.9553 -1.4989 -0.039
C 6.5903 -2.6514 -0.0408
C 6.1627 -3.9932 -0.0185
C 7.0674 -5.0182 0.1963
C 6.6489 -6.3532 0.2433
C 5.328 -6.684 0.0847
C 4.3743 -5.6681 -0.1405
C 3.0034 -5.9427 -0.3002
N 2.1111 -4.9998 -0.5173
C 2.497 -3.7027 -0.6055
C 3.8019 -3.3286 -0.4527
C 4.7867 -4.3064 -0.2042
H 8.1119 -4.782 0.3327
H 7.3843 -7.1248 0.4119
H 5.0096 -7.7133 0.1291
H 2.6425 -6.9675 -0.2447
H 1.7044 -2.985 -0.8074
H 4.0977 -2.294 -0.5199
C 7.3763 -0.1521 -0.0346
C 8.7397 0.1569 0.0162
C 9.1488 1.4787 0.0218
C 8.2199 2.5032 -0.0232
C 6.8549 2.2021 -0.0724
C 6.4339 0.8735 -0.0773
H 9.4679 -0.6394 0.05
H 10.2026 1.7122 0.0609
H 8.5436 3.5329 -0.0193
H 5.3812 0.642 -0.1134
C 5.9035 3.2418 -0.1246
C 5.0767 4.1219 -0.177
C 4.1406 5.17 -0.2624
C 4.5555 6.4986 -0.4304
C 3.6001 7.4938 -0.5316
C 2.2583 7.1522 -0.4664
N 1.8665 5.8861 -0.2982
C 2.7683 4.9126 -0.1955
H 5.6078 6.7307 -0.4825
H 3.8906 8.5235 -0.6632
H 1.4743 7.902 -0.5502
H 2.3915 3.9015 -0.0549
C 0.1909 -1.8117 6.4029
C 0.2599 -2.9442 5.9855
C 0.3651 -4.2616 5.4984
C 0.5832 -5.3184 6.3648
C 0.713 -6.6283 5.8884
C 0.6347 -6.9017 4.5474
C 0.4088 -5.8522 3.6311
C 0.3292 -6.0672 2.2427
N 0.1118 -5.093 1.3847
C -0.0561 -3.8213 1.8249
C 0.0152 -3.504 3.1517
C 0.2612 -4.516 4.1018
H 0.6574 -5.127 7.4247
H 0.8815 -7.4262 6.5952
H 0.7428 -7.9115 4.1847
H 0.4504 -7.0699 1.8383
H -0.2528 -3.0759 1.0569
H -0.115 -2.489 3.4909
C 0.1138 -0.4882 6.8861
C 0.0873 -0.2445 8.2633
C 0.0135 1.0546 8.7339
C -0.0352 2.1205 7.853
C -0.0073 1.8849 6.4746
C 0.0678 0.5796 5.9919
H 0.1236 -1.0734 8.9541
H -0.0069 1.2376 9.7981
H -0.0931 3.1323 8.2245
H 0.091 0.3987 4.929
C -0.0631 2.9667 5.5716
C -0.1176 3.883 4.7853
C -0.208 4.9704 3.8957
C -0.4532 6.2693 4.363
C -0.557 7.3038 3.4506
C -0.4182 7.0298 2.0988
N -0.1764 5.7923 1.6575
C -0.0696 4.7821 2.5175
H -0.5616 6.4484 5.4213
H -0.7471 8.3119 3.7816
H -0.5013 7.812 1.3471
H 0.1326 3.7971 2.1016
C -6.8568 1.5696 -0.7708
C -6.4918 2.7221 -0.773
C -6.0646 4.064 -0.7999
C -6.9716 5.0886 -1.0067
C -6.5538 6.4236 -1.0588
C -5.2315 6.7547 -0.9131
C -4.2755 5.7393 -0.6961
C -2.9033 6.0143 -0.549
N -2.0088 5.0718 -0.3392
C -2.3936 3.7746 -0.2469
C -3.6998 3.4001 -0.3875
C -4.687 4.3775 -0.6275
H -8.0173 4.8521 -1.133
H -7.2908 7.195 -1.221
H -4.9136 7.784 -0.9614
H -2.5431 7.0392 -0.6085
H -1.599 3.0571 -0.0521
H -3.9947 2.3655 -0.3169
C -7.2776 0.2227 -0.7714
C -8.6415 -0.0865 -0.8038
C -9.0505 -1.4084 -0.806
C -8.1208 -2.4328 -0.7759
C -6.7553 -2.1314 -0.745
C -6.3346 -0.8028 -0.7434
H -9.3703 0.7097 -0.8259
H -10.1046 -1.642 -0.8309
H -8.4444 -3.4625 -0.7772
H -5.2815 -0.5711 -0.7217
C -5.8032 -3.1711 -0.7071
C -4.9755 -4.0509 -0.6666
C -4.0386 -5.0992 -0.5931
C -4.4523 -6.429 -0.431
C -3.4961 -7.4243 -0.3394
C -2.1546 -7.0816 -0.4078
N -1.764 -5.8145 -0.5708
C -2.6667 -4.8409 -0.6647
H -5.5042 -6.6618 -0.3756
H -3.7856 -8.4549 -0.2125
H -1.3701 -7.8316 -0.3307
H -2.2909 -3.829 -0.8018
C -0.0626 1.8875 -7.2702
C -0.139 3.0192 -6.8521
C -0.2523 4.3357 -6.3642
C -0.4722 5.3923 -7.2304
C -0.6091 6.7011 -6.7532
C -0.5361 6.9737 -5.4117
C -0.3086 5.9243 -4.4957
C -0.2333 6.1385 -3.1069
N -0.0141 5.1645 -2.2491
C 0.1591 3.8937 -2.6898
C 0.0925 3.5772 -4.017
C -0.1543 4.5892 -4.967
H -0.542 5.2016 -8.2906
H -0.779 7.499 -7.4597
H -0.6496 7.9827 -5.0484
H -0.3592 7.1405 -2.7021
H 0.356 3.1483 -1.9218
H 0.2272 2.5629 -4.3567
C 0.0239 0.5643 -7.7526
C 0.0662 0.3203 -9.1294
C 0.1496 -0.9787 -9.5987
C 0.1924 -2.0442 -8.717
C 0.1488 -1.8083 -7.339
C 0.0639 -0.5032 -6.8577
H 0.0344 1.1489 -9.8208
H 0.1822 -1.1618 -10.6625
H 0.258 -3.0558 -9.0876
H 0.0284 -0.3221 -5.7951
C 0.1983 -2.8898 -6.4353
C 0.2472 -3.8059 -5.6485
C 0.3323 -4.8938 -4.7589
C 0.582 -6.192 -5.2259
C 0.6805 -7.2274 -4.314
C 0.5324 -6.9549 -2.9629
N 0.2862 -5.7181 -2.5219
C 0.184 -4.7071 -3.3816
H 0.6979 -6.3698 -6.2837
H 0.8739 -8.2349 -4.6448
H 0.6115 -7.7379 -2.2115
H -0.0223 -3.7229 -2.966

