%chk=_s_5d1_b.chk
%mem=60000mb
%nprocshared=32

#P PBE1PBE/Def2SVP SP  SCF=(YQC,MaxCycle=900) int=(Grid=Superfinegrid) EmpiricalDispersion=GD3BJ SCRF=(PCM,Solvent=DiMethylSulfoxide)

_s_5d1_b

4 1
Pd 1.0653 3.3941 -0.0598
Pd -0.5758 -5.596 0.3557
C 6.2536 -1.6546 0.311
C 5.8194 -2.7687 0.4896
C 5.3856 -4.0973 0.6716
C 6.3162 -5.1011 0.8793
C 5.9219 -6.4342 1.0387
C 4.5982 -6.7857 0.984
C 3.6192 -5.7917 0.7722
C 2.2486 -6.097 0.6933
N 1.3264 -5.181 0.4997
C 1.6717 -3.8756 0.372
C 2.979 -3.4758 0.4226
C 4.002 -4.4278 0.6211
H 7.3649 -4.848 0.9179
H 6.6775 -7.1872 1.2012
H 4.2972 -7.8146 1.1
H 1.9251 -7.129 0.7974
H 0.844 -3.1807 0.2246
H 3.2529 -2.4389 0.3095
C 6.6883 -0.3388 0.0416
C 7.9723 -0.0987 -0.4538
C 8.3512 1.1937 -0.7667
C 7.4679 2.2487 -0.6068
C 6.1844 2.0242 -0.1062
C 5.8094 0.7264 0.2298
H 8.6581 -0.9198 -0.5959
H 9.3423 1.382 -1.1511
H 7.7729 3.2417 -0.8978
H 4.8461 0.5281 0.6716
C 5.2231 3.1281 0.0296
C 5.6068 4.4345 0.349
C 4.6464 5.4294 0.4376
C 3.3143 5.1065 0.2326
N 2.9492 3.8585 -0.0573
C 3.8623 2.8993 -0.1703
H 6.6433 4.6645 0.5394
H 4.9286 6.4425 0.6746
H 2.5227 5.8507 0.2955
H 3.4999 1.9143 -0.4575
C -0.8044 -0.4118 6.1351
C -0.6011 0.7655 5.9487
C -0.4422 2.1298 5.636
C -0.8833 3.119 6.4973
C -0.8159 4.4699 6.1364
C -0.3409 4.8507 4.9072
C 0.1285 3.8729 4.0052
C 0.5793 4.1884 2.7085
N 1.0373 3.276 1.8829
C 1.122 1.9772 2.2664
C 0.665 1.5602 3.4832
C 0.1173 2.4999 4.3813
H -1.2948 2.8436 7.4565
H -1.1642 5.2146 6.8356
H -0.3211 5.8907 4.6229
H 0.553 5.2123 2.3497
H 1.5917 1.2926 1.5568
H 0.7122 0.5237 3.7769
C -1.1274 -1.7684 6.3511
C -1.8144 -2.1388 7.5106
C -2.1918 -3.456 7.69
C -1.8932 -4.4085 6.7311
C -1.194 -4.0562 5.5737
C -0.8115 -2.7307 5.3909
H -2.0517 -1.3941 8.2548
H -2.7293 -3.7437 8.5809
H -2.231 -5.4227 6.8754
H -0.2445 -2.4378 4.5217
C -0.8938 -5.0875 4.5682
C -0.6104 -6.4029 4.9494
C -0.3986 -7.373 3.9836
C -0.4534 -7.0113 2.6488
N -0.6828 -5.7484 2.2873
C -0.9025 -4.8077 3.2009
H -0.5474 -6.6612 5.9947
H -0.1935 -8.3929 4.2664
H -0.3178 -7.7523 1.8571
H -1.108 -3.8133 2.8192
C -5.8008 -0.2509 0.3378
C -5.4497 0.8981 0.202
C -4.9758 2.2197 0.0802
C -5.8429 3.2953 0.0194
C -5.3588 4.6064 -0.0724
C -4.0124 4.8638 -0.0969
C -3.0935 3.7935 -0.0376
C -1.7009 3.9877 -0.0535
N -0.85 2.9845 -0.0086
C -1.2927 1.7066 0.0622
C -2.6243 1.4131 0.0954
C -3.5719 2.4544 0.0451
H -6.908 3.1214 0.0444
H -6.0655 5.4206 -0.1196
H -3.6471 5.8762 -0.161
H -1.2793 4.9902 -0.1047
H -0.5257 0.9401 0.0932
H -2.9705 0.3944 0.1609
C -6.1887 -1.5893 0.5644
C -7.4338 -1.8723 1.1315
C -7.7748 -3.1827 1.4089
C -6.894 -4.2136 1.1295
C -5.6517 -3.9477 0.5482
C -5.3076 -2.6292 0.2649
H -8.1173 -1.0682 1.3571
H -8.7329 -3.4045 1.8541
H -7.1679 -5.2238 1.3906
H -4.3731 -2.3958 -0.2198
C -4.7233 -5.056 0.2728
C -5.1916 -6.3198 -0.105
C -4.2982 -7.3602 -0.2933
C -2.9458 -7.1236 -0.1171
N -2.4963 -5.9134 0.2085
C -3.3433 -4.9029 0.4035
H -6.2468 -6.481 -0.2598
H -4.6464 -8.3409 -0.5739
H -2.2074 -7.9108 -0.2425
H -2.8961 -3.953 0.6937
C -1.473 -0.6029 -5.7213
C -1.2886 0.5907 -5.6622
C -1.0838 1.9688 -5.4546
C -1.6154 2.9252 -6.3005
C -1.4623 4.2899 -6.027
C -0.8077 4.7186 -4.9001
C -0.2458 3.7744 -4.0153
C 0.3836 4.1391 -2.8074
N 0.9121 3.2535 -1.9952
C 0.9019 1.9339 -2.3134
C 0.2808 1.4737 -3.438
C -0.3506 2.386 -4.3085
H -2.1616 2.6156 -7.1786
H -1.8849 5.0091 -6.7118
H -0.7175 5.7711 -4.683
H 0.4433 5.1808 -2.5101
H 1.4328 1.259 -1.6368
H 0.2559 0.4226 -3.6769
C -1.724 -1.9898 -5.7905
C -2.4983 -2.5105 -6.8305
C -2.7585 -3.8672 -6.877
C -2.2492 -4.713 -5.9068
C -1.4698 -4.2062 -4.8644
C -1.215 -2.8407 -4.8072
H -2.8887 -1.851 -7.5904
H -3.3611 -4.2707 -7.6767
H -2.4794 -5.7663 -5.9493
H -0.5933 -2.434 -4.0253
C -0.9246 -5.131 -3.8571
C -0.4309 -6.3812 -4.2408
C 0.0402 -7.2606 -3.2802
C 0.0072 -6.8777 -1.9506
N -0.4462 -5.6765 -1.5868
C -0.8984 -4.8181 -2.4982
H -0.4069 -6.6537 -5.2843
H 0.4225 -8.2286 -3.5613
H 0.3638 -7.548 -1.1657
H -1.2657 -3.8704 -2.1197

