%chk=_s_3d1_d.chk
%mem=60000mb
%nprocshared=32

#P PBE1PBE/Def2SVP SP  SCF=(YQC,MaxCycle=900) int=(Grid=Superfinegrid) EmpiricalDispersion=GD3BJ SCRF=(PCM,Solvent=DiMethylSulfoxide)

_s_3d1_d

4 1
Pd -0.1392 4.605 0.0737
Pd 0.1935 -5.0567 -0.1263
C 4.9464 -1.0138 -0.2807
C 4.5466 -2.1463 -0.4138
C 4.0368 -3.4539 -0.5418
C 4.8546 -4.5484 -0.8549
C 4.2834 -5.8044 -0.9576
C 2.9207 -5.9526 -0.7447
N 2.1473 -4.909 -0.4404
C 2.6749 -3.6882 -0.3411
H 5.912 -4.4041 -1.0138
H 4.8867 -6.6642 -1.2002
H 2.4304 -6.9182 -0.8211
H 1.9951 -2.8736 -0.0862
C 5.3906 0.3097 -0.0736
C 6.677 0.5491 0.4157
C 7.0782 1.8481 0.6664
C 6.2178 2.9074 0.4339
C 4.9338 2.6826 -0.0693
C 4.5264 1.3763 -0.3229
H 7.3455 -0.2768 0.6031
H 8.0681 2.0388 1.0519
H 6.5411 3.9091 0.6697
H 3.5559 1.1723 -0.7465
C 4.0285 3.8201 -0.2978
C 4.5103 5.0645 -0.7172
C 3.6354 6.1282 -0.861
C 2.2903 5.9329 -0.6008
N 1.8216 4.737 -0.2329
C 2.6559 3.709 -0.0788
H 5.5581 5.1941 -0.938
H 3.9928 7.0963 -1.1724
H 1.5662 6.7411 -0.6876
H 2.2085 2.776 0.2528
C 0.2395 0.6422 4.882
C 0.3062 1.7749 4.4666
C 0.3586 3.0807 3.9392
C 0.6076 4.2024 4.7422
C 0.6384 5.4544 4.1542
C 0.4189 5.5717 2.7895
N 0.1758 4.502 2.0302
C 0.146 3.2848 2.5742
H 0.7737 4.0817 5.8014
H 0.8305 6.3348 4.7458
H 0.4404 6.5335 2.2861
H -0.0614 2.4479 1.9054
C 0.1103 -0.6848 5.3449
C -0.3593 -0.9342 6.6368
C -0.5333 -2.2397 7.0567
C -0.2436 -3.2957 6.2095
C 0.2407 -3.0601 4.9203
C 0.4172 -1.7471 4.4941
H -0.5912 -0.1112 7.2949
H -0.9032 -2.4386 8.0509
H -0.4203 -4.3047 6.5476
H 0.8244 -1.5325 3.5189
C 0.5306 -4.195 4.0294
C 1.0223 -5.4066 4.5263
C 1.2234 -6.4724 3.6652
C 0.9477 -6.3108 2.3187
N 0.5107 -5.1444 1.8354
C 0.3008 -4.1155 2.6564
H 1.2541 -5.5088 5.5747
H 1.5908 -7.4162 4.0344
H 1.078 -7.1227 1.6054
H -0.0854 -3.2093 2.1978
C -4.8258 -1.3602 0.1902
C -4.3489 -2.4671 0.2766
C -3.7502 -3.7408 0.3508
C -4.4903 -4.901 0.6173
C -3.8339 -6.1179 0.6682
C -2.4646 -6.1631 0.4507
N -1.7654 -5.057 0.1909
C -2.3757 -3.8724 0.142
H -5.5547 -4.8364 0.781
H -4.3763 -7.0265 0.8742
H -1.909 -7.0951 0.4873
H -1.754 -3.003 -0.0781
C -5.3604 -0.063 0.0376
C -6.6612 0.1073 -0.4423
C -7.1513 1.3848 -0.6397
C -6.3652 2.4903 -0.3631
C -5.0679 2.3338 0.1314
C -4.5711 1.0493 0.3313
H -7.2717 -0.7542 -0.6641
H -8.1528 1.5227 -1.0178
H -6.7572 3.4762 -0.5578
H -3.5879 0.8953 0.7469
C -4.2425 3.5205 0.4075
C -4.808 4.7105 0.8775
C -4.008 5.8249 1.0661
C -2.6531 5.7335 0.7995
N -2.104 4.589 0.383
C -2.8659 3.5133 0.1856
H -5.8618 4.7584 1.1024
H -4.4306 6.7525 1.4169
H -1.9862 6.5854 0.9205
H -2.356 2.6278 -0.1839
C -0.2504 0.8274 -4.8948
C -0.3943 1.9346 -4.4328
C -0.5357 3.2109 -3.8521
C -0.8621 4.3449 -4.6086
C -0.9783 5.5665 -3.9695
C -0.7658 5.6423 -2.6007
N -0.4489 4.5614 -1.8858
C -0.3361 3.3726 -2.4794
H -1.0206 4.2569 -5.6721
H -1.2311 6.4553 -4.5247
H -0.8528 6.5787 -2.0582
H -0.071 2.525 -1.8454
C -0.0307 -0.4673 -5.4119
C 0.4537 -0.6302 -6.712
C 0.7164 -1.9022 -7.1853
C 0.5007 -3.0097 -6.3831
C 0.0027 -2.8615 -5.0861
C -0.2631 -1.5825 -4.6063
H 0.628 0.2333 -7.3351
H 1.0981 -2.034 -8.1862
H 0.7459 -3.9894 -6.7622
H -0.6832 -1.4368 -3.6238
C -0.2075 -4.0494 -4.2433
C -0.6152 -5.2705 -4.7906
C -0.7415 -6.3822 -3.9746
C -0.4759 -6.2578 -2.6221
N -0.1196 -5.0851 -2.0904
C 0.018 -4.0112 -2.8679
H -0.8406 -5.345 -5.8428
H -1.0435 -7.333 -4.383
H -0.5491 -7.1055 -1.9431
H 0.3413 -3.1002 -2.3716

