%chk=_s_4b1_d.chk
%mem=60000mb
%nprocshared=32

#P PBE1PBE/Def2SVP SP  SCF=(YQC,MaxCycle=900) int=(Grid=Superfinegrid) EmpiricalDispersion=GD3BJ SCRF=(PCM,Solvent=DiMethylSulfoxide)

_s_4b1_d

4 1
Pd 1.097 6.339 -0.8433
Pd 0.5625 -4.9277 -0.6882
C 5.6063 -1.2288 -1.3336
C 5.6923 -2.4347 -1.3759
C 5.8966 -3.827 -1.4394
C 7.1706 -4.3179 -1.6622
C 7.4149 -5.6936 -1.7197
C 6.3945 -6.5978 -1.56
C 5.0818 -6.1438 -1.34
C 3.9888 -7.0256 -1.1771
C 2.7351 -6.5251 -0.9789
N 2.4964 -5.1896 -0.9314
C 3.4876 -4.3353 -1.0702
C 4.8157 -4.7448 -1.2775
H 7.9893 -3.6259 -1.7879
H 8.4224 -6.0406 -1.8913
H 6.5849 -7.6586 -1.6032
H 4.1597 -8.0898 -1.2145
H 1.8737 -7.1871 -0.8505
H 3.2421 -3.2797 -1.0193
C 5.4258 0.169 -1.2822
C 6.1041 1.0086 -2.1703
C 5.879 2.3703 -2.1443
C 4.9702 2.9213 -1.2396
C 4.3217 2.0819 -0.3303
C 4.5463 0.7225 -0.3468
H 6.7947 0.5861 -2.8839
H 6.3868 3.0059 -2.8532
H 3.6619 2.503 0.4112
H 4.0536 0.0786 0.3631
C 4.6687 4.3596 -1.2545
C 5.6554 5.3366 -1.4259
C 5.2985 6.6738 -1.4268
C 3.9664 7.0204 -1.2579
N 3.0276 6.0908 -1.104
C 3.354 4.7967 -1.1032
H 6.6888 5.0473 -1.5381
H 6.0431 7.4431 -1.5519
H 3.6402 8.0541 -1.2468
H 2.5319 4.0809 -0.9965
C 1.5259 2.4392 4.0696
C 1.6562 3.6354 4.1943
C 1.8222 5.0118 4.4425
C 2.0939 5.4432 5.7286
C 2.2533 6.8024 6.0162
C 2.1478 7.749 5.0277
C 1.881 7.3556 3.7041
C 1.7692 8.2826 2.6425
C 1.5219 7.8393 1.376
N 1.3776 6.5191 1.0948
C 1.4656 5.6246 2.056
C 1.7155 5.9742 3.3939
H 2.1781 4.7173 6.5228
H 2.4608 7.1026 7.0319
H 2.2693 8.7971 5.2515
H 1.8841 9.3351 2.8472
H 1.431 8.537 0.5383
H 1.3373 4.584 1.7772
C 1.375 1.0552 3.8442
C 0.4153 0.5988 2.9356
C 0.3041 -0.748 2.6669
C 1.1406 -1.6712 3.2994
C 2.0689 -1.216 4.2371
C 2.1898 0.1324 4.5064
H -0.2387 1.3076 2.4547
H -0.4557 -1.0933 1.9842
H 2.7221 -1.9171 4.7331
H 2.9216 0.4801 5.2191
C 1.0566 -3.0965 2.9514
C 1.1426 -4.1139 3.9079
C 1.0536 -5.4359 3.5076
C 0.8814 -5.7271 2.1628
N 0.8088 -4.7597 1.2528
C 0.8946 -3.4798 1.6213
H 1.2593 -3.8663 4.9515
H 1.1118 -6.2353 4.2283
H 0.8017 -6.7465 1.8028
H 0.8519 -2.7325 0.8218
C -4.1082 -0.7519 -0.154
C -4.308 -1.9426 -0.0795
C -4.6432 -3.3071 0.021
C -5.958 -3.669 0.2534
C -6.3314 -5.0134 0.3476
C -5.4011 -6.0141 0.2156
C -4.0512 -5.6925 -0.013
C -3.0465 -6.6778 -0.1487
C -1.7511 -6.3038 -0.3572
N -1.3871 -4.9986 -0.4407
C -2.293 -4.0509 -0.3279
C -3.654 -4.3271 -0.1128
H -6.7076 -2.8995 0.3577
H -7.3672 -5.2587 0.5256
H -5.691 -7.0505 0.2872
H -3.3173 -7.7196 -0.0825
H -0.9562 -7.0476 -0.4652
H -1.9488 -3.025 -0.4069
C -3.7961 0.6206 -0.2428
C -2.8694 1.0629 -1.1917
C -2.5171 2.394 -1.2447
C -3.0819 3.3153 -0.3591
C -4.0374 2.8774 0.5592
C -4.3905 1.5443 0.6217
H -2.4409 0.3563 -1.8835
H -1.8214 2.7305 -1.9965
H -4.4817 3.5771 1.25
H -5.1169 1.2086 1.3456
C -2.6454 4.7184 -0.3829
C -3.535 5.7887 -0.239
C -3.0531 7.0857 -0.274
C -1.6945 7.2999 -0.4508
N -0.8481 6.2818 -0.5784
C -1.2955 5.0249 -0.5445
H -4.591 5.6017 -0.1201
H -3.7214 7.9251 -0.1706
H -1.2719 8.2973 -0.4896
H -0.5451 4.2318 -0.6308
C 0.2944 2.3638 -5.6482
C 0.2779 3.563 -5.8057
C 0.2426 4.9417 -6.0917
C 0.0113 5.3614 -7.3895
C -0.0191 6.7212 -7.7145
C 0.1769 7.6803 -6.7522
C 0.407 7.2999 -5.4179
C 0.6074 8.2409 -4.382
C 0.8131 7.8111 -3.1035
N 0.8322 6.4914 -2.786
C 0.6587 5.5833 -3.7224
C 0.4414 5.9181 -5.0698
H -0.1424 4.6253 -8.1636
H -0.1986 7.0118 -8.7383
H 0.1548 8.7287 -7.0048
H 0.5923 9.2936 -4.6157
H 0.9707 8.5198 -2.2852
H 0.6884 4.5432 -3.4149
C 0.3139 0.9784 -5.3847
C -0.5852 0.119 -6.0225
C -0.5921 -1.227 -5.716
C 0.29 -1.7419 -4.7648
C 1.2108 -0.885 -4.1567
C 1.2272 0.4585 -4.4625
H -1.2817 0.5145 -6.7456
H -1.3093 -1.8765 -6.1936
H 1.9352 -1.2816 -3.4636
H 1.9458 1.1152 -4.0003
C 0.2393 -3.1586 -4.3776
C 0.0566 -4.1894 -5.3059
C 0.021 -5.5023 -4.8692
C 0.1663 -5.7714 -3.5167
N 0.3308 -4.7904 -2.6336
C 0.3657 -3.5188 -3.0372
H -0.0372 -3.9607 -6.3561
H -0.1132 -6.3122 -5.5678
H 0.1498 -6.7834 -3.1287
H 0.4796 -2.7571 -2.2585

