%chk=_s_4d2_a.chk
%mem=60000mb
%nprocshared=32

#P PBE1PBE/Def2SVP SP  SCF=(YQC,MaxCycle=900) int=(Grid=Superfinegrid) EmpiricalDispersion=GD3BJ SCRF=(PCM,Solvent=DiMethylSulfoxide)

_s_4d2_a

4 1
Pd 0.1258 5.0295 -0.0388
Pd -1.9733 -4.4929 1.3647
C 4.9104 1.2381 -0.7639
C 4.9365 2.3453 -1.2492
C 5.0824 3.6254 -1.8154
C 6.2633 3.9488 -2.4599
C 6.4643 5.2199 -3.0068
C 5.4988 6.1903 -2.9057
C 4.284 5.907 -2.2562
C 3.2619 6.8692 -2.1002
C 2.1092 6.5363 -1.4532
N 1.8887 5.2902 -0.9637
C 2.819 4.363 -1.0894
C 4.0527 4.6091 -1.7136
H 7.043 3.2066 -2.5382
H 7.397 5.4356 -3.5053
H 5.6597 7.1751 -3.3154
H 3.406 7.8645 -2.4888
H 1.3141 7.2626 -1.3098
H 2.5927 3.3817 -0.6816
C 4.8645 -0.0493 -0.189
C 6.0513 -0.7384 0.0808
C 5.9979 -2.0009 0.6428
C 4.7802 -2.5952 0.9259
C 3.5884 -1.9147 0.6627
C 3.6377 -0.636 0.1123
H 7.0012 -0.2803 -0.1483
H 6.9144 -2.5288 0.8583
H 4.7588 -3.5712 1.3837
H 2.7302 -0.1068 -0.13
C 2.2945 -2.5312 0.9582
C 2.0764 -3.898 0.762
C 0.8414 -4.4317 1.0271
N -0.1694 -3.6763 1.4839
C 0.0144 -2.364 1.6776
C 1.2232 -1.7657 1.4294
H 2.8601 -4.5317 0.3794
H 0.6119 -5.4834 0.8914
H -0.8466 -1.8257 2.0503
H 1.3438 -0.711 1.6145
C 2.6039 0.7987 4.6459
C 2.6493 1.9926 4.4455
C 2.9059 3.3786 4.5248
C 3.7194 3.7639 5.5811
C 4.0594 5.0991 5.8021
C 3.5934 6.0789 4.963
C 2.7712 5.7355 3.8768
C 2.275 6.7174 2.9913
C 1.4857 6.3499 1.9453
N 1.1455 5.0516 1.7101
C 1.5852 4.1068 2.52
C 2.408 4.3757 3.633
H 4.0924 3.0066 6.2535
H 4.691 5.3526 6.6396
H 3.8482 7.1147 5.1233
H 2.5288 7.7527 3.1541
H 1.095 7.1001 1.2532
H 1.275 3.0923 2.2977
C 2.6008 -0.5863 4.9285
C 3.7417 -1.148 5.5145
C 3.7542 -2.4891 5.848
C 2.6545 -3.291 5.5917
C 1.5118 -2.7469 5.0043
C 1.4901 -1.3886 4.6837
H 4.605 -0.5298 5.7068
H 4.6296 -2.9161 6.3133
H 2.6748 -4.33 5.8799
H 0.6157 -0.9451 4.2352
C 0.3614 -3.5775 4.6363
C 0.5119 -4.8847 4.1633
C -0.5417 -5.4963 3.5103
N -1.7113 -4.877 3.3129
C -1.9288 -3.7051 3.9327
C -0.9335 -3.0412 4.6165
H 1.4641 -5.3862 4.2247
H -0.4537 -6.4911 3.0852
H -2.9316 -3.2888 3.8596
H -1.1431 -2.0975 5.0942
C -5.1448 1.5522 -1.3584
C -5.0054 2.5745 -0.7257
C -5.1471 3.7509 0.0427
C -6.4421 4.1719 0.2947
C -6.7059 5.2904 1.0903
C -5.6773 6.0069 1.6462
C -4.3462 5.6265 1.4008
C -3.2528 6.3446 1.93
C -1.9789 5.9765 1.6124
N -1.7049 4.9167 0.8059
C -2.7033 4.1883 0.3333
C -4.0551 4.4901 0.5874
H -7.2652 3.6162 -0.128
H -7.73 5.5814 1.2668
H -5.8724 6.8669 2.2674
H -3.4358 7.1931 2.5698
H -1.1318 6.5221 2.0157
H -2.4422 3.3334 -0.2835
C -5.3364 0.2842 -1.9558
C -5.7981 0.1388 -3.2652
C -6.0571 -1.1285 -3.7587
C -5.8562 -2.2541 -2.9765
C -5.3902 -2.1223 -1.6678
C -5.1322 -0.8464 -1.1688
H -5.9625 1.0094 -3.8813
H -6.4272 -1.2413 -4.7666
H -6.0938 -3.2283 -3.3737
H -4.7666 -0.7115 -0.163
C -5.0796 -3.2699 -0.8105
C -5.1899 -3.1635 0.5852
C -4.5485 -4.0858 1.3851
N -3.8315 -5.1033 0.8717
C -3.9151 -5.3348 -0.4452
C -4.5361 -4.4561 -1.3132
H -5.7416 -2.3518 1.0324
H -4.6209 -4.0521 2.4694
H -3.4303 -6.2355 -0.802
H -4.5104 -4.6446 -2.3741
C 0.2201 1.6931 -5.0408
C -0.2292 2.8086 -5.1625
C -0.7661 4.1025 -5.3116
C -1.1146 4.5847 -6.5582
C -1.6781 5.8574 -6.7055
C -1.8971 6.6637 -5.6163
C -1.5442 6.2183 -4.3297
C -1.7207 7.0075 -3.1707
C -1.3194 6.5325 -1.9571
N -0.7604 5.3023 -1.8115
C -0.6013 4.5259 -2.8661
C -0.9703 4.9247 -4.1616
H -0.955 3.9683 -7.4297
H -1.943 6.2016 -7.6936
H -2.3338 7.643 -5.7336
H -2.1609 7.9878 -3.2592
H -1.4359 7.1217 -1.0491
H -0.1564 3.5501 -2.6937
C 0.6733 0.3897 -4.7378
C 1.869 -0.121 -5.2452
C 2.2873 -1.3811 -4.8539
C 1.5428 -2.1304 -3.9595
C 0.3396 -1.6318 -3.4475
C -0.0932 -0.3723 -3.8588
H 2.4593 0.4671 -5.9307
H 3.2115 -1.7793 -5.2436
H 1.9188 -3.0879 -3.6384
H -1.0435 0.022 -3.536
C -0.4323 -2.3774 -2.4521
C -0.3871 -3.7726 -2.363
C -1.0544 -4.4133 -1.3466
N -1.7829 -3.7401 -0.4473
C -1.8874 -2.4077 -0.5426
C -1.2237 -1.7018 -1.5118
H 0.1645 -4.3569 -3.0812
H -1.0382 -5.4896 -1.2196
H -2.5235 -1.935 0.1988
H -1.2956 -0.6266 -1.5143

