%chk=_1_alde1_3_ami3_2_opt_cfm_pbe.chk
%mem=60000mb
%nprocshared=32

#P PBE1PBE/Def2TZVP SP SCF=(YQC,MaxCycle=900) int=(Grid=Superfinegrid) EmpiricalDispersion=GD3 SCRF=(PCM,Solvent=Chloroform)

_1_alde1_3_ami3_2_opt_cfm_pbe

0 1
C -0.8344 0.0796 0.1552
C -0.4031 -1.0133 1.0486
C -2.1777 0.4023 -0.0312
C -2.5415 1.4375 -0.8903
H -2.9412 -0.1382 0.5125
C -1.5547 2.1524 -1.5653
C -0.211 1.8507 -1.375
H -1.8589 2.9484 -2.2278
C 0.1405 0.8176 -0.5059
C 0.8164 2.6111 -2.0726
H 1.1883 0.5969 -0.3701
C -3.9498 1.759 -1.0723
C -3.0907 -3.0514 1.2479
C -1.8811 -2.7347 0.3483
N -3.5934 -1.8123 1.8326
H -2.7504 -3.7645 2.0195
C -4.1892 -3.7062 0.4132
N -0.827 -2.1941 1.1581
H -2.2069 -2.0507 -0.4497
C -1.3686 -4.0332 -0.2849
C -3.6846 -4.9868 -0.2428
C -2.4645 -4.6966 -1.1103
C -5.7181 2.9663 -2.0103
C -6.0906 2.7486 -3.488
N -4.3264 2.6792 -1.8487
H -6.3497 2.3002 -1.3953
C -5.9582 4.427 -1.6155
N -5.9592 1.3301 -3.793
H -5.4144 3.3784 -4.0944
C -7.5363 3.1767 -3.7364
C -7.4048 4.8323 -1.867
C -7.7628 4.6293 -3.335
C 3.029 3.121 -2.6295
C 3.8329 2.1616 -3.5254
N 2.0436 2.3605 -1.9254
H 2.5706 3.8913 -3.2754
C 3.953 3.7822 -1.6017
N 2.9465 1.6434 -4.5588
H 4.2387 1.3657 -2.8746
C 4.9887 2.9061 -4.1925
C 5.0948 4.5218 -2.287
C 5.8968 3.5631 -3.1599
H 2.1604 1.1652 -4.1306
H 3.4399 0.9734 -5.1391
H -2.9057 -1.4427 2.4824
H -4.4425 -1.9979 2.3571
H -5.0085 1.0255 -3.6107
H -6.1567 1.1638 -4.7741
H 0.441 -0.7653 1.6904
H 0.4526 3.4116 -2.7352
H -8.8059 4.9016 -3.5081
H -7.1388 5.2792 -3.953
H -7.5462 5.8783 -1.5871
H -8.0663 4.2249 -1.245
H -5.7037 4.5544 -0.5611
H -5.2848 5.0556 -2.201
H -7.7734 3.0373 -4.7937
H -8.1904 2.5213 -3.1587
H -4.6583 1.1466 -0.4936
H 5.7424 4.9746 -1.5334
H 4.6884 5.3237 -2.9076
H 3.3657 4.4698 -0.9893
H 4.3491 3.0044 -0.9463
H 6.7021 4.0999 -3.6651
H 6.3491 2.7929 -2.5307
H 5.5604 2.2039 -4.8037
H 4.5687 3.6623 -4.8581
H -2.0869 -5.6241 -1.5454
H -2.7519 -4.0337 -1.9298
H -4.4784 -5.4281 -0.8487
H -3.4138 -5.7075 0.5325
H -4.5168 -2.9972 -0.3497
H -5.046 -3.9283 1.0543
H -1.0351 -4.7015 0.5107
H -0.506 -3.8034 -0.9134

