%chk=_1_alde1_2_ami1_1_opt_dcm_mp2.chk
%mem=60000mb
%nprocshared=32

#P MP2/aug-cc-pVDZ SP SCF=(YQC,MaxCycle=900) int=(Grid=Superfinegrid)  SCRF=(PCM,Solvent=Dichloromethane)

_1_alde1_2_ami1_1_opt_dcm_mp2

0 1
C -1.2002 0.4554 -1.602
C -1.3961 -0.6836 -0.6993
C -2.2872 0.9973 -2.286
C -2.1107 2.0741 -3.1393
H -3.2712 0.5797 -2.1349
C -0.8377 2.5986 -3.3187
C 0.2559 2.064 -2.6483
H -0.6929 3.4344 -3.9875
C 0.0706 0.9982 -1.7837
C 1.622 2.673 -2.8248
H 0.9244 0.5889 -1.2641
C -3.287 2.6277 -3.8962
O -2.4448 -1.2371 -0.485
C -5.6266 2.6059 -4.0627
C -4.9695 2.1268 -5.3933
N -4.5192 2.5393 -3.119
H -6.3993 1.9005 -3.7308
C -6.2824 3.9968 -4.1917
N -3.5707 1.8412 -5.0828
H -4.9579 2.9707 -6.0962
C -5.6878 0.9503 -6.0679
H -5.5178 4.7095 -4.5248
C -6.8433 4.468 -2.8491
C -7.4149 3.97 -5.2166
H -6.7455 1.2254 -6.1419
C -5.5878 -0.3508 -5.2698
C -5.1379 0.7439 -7.4782
H -8.1735 3.2499 -4.9163
H -7.0551 3.6997 -6.2055
H -7.8822 4.9502 -5.283
H -7.5592 3.7435 -2.4661
H -7.3512 5.4223 -2.9712
H -6.0619 4.6023 -2.1042
H -4.0659 0.5685 -7.4368
H -5.3164 1.6227 -8.0936
H -5.6166 -0.1106 -7.9512
H -5.7816 -0.1835 -4.2131
H -4.6025 -0.8006 -5.3758
H -6.3176 -1.0666 -5.6415
C 3.8551 2.504 -2.085
C 3.2778 3.9232 -1.8096
N 2.6894 1.7294 -2.4974
H 4.2157 2.0703 -1.1406
C 5.0316 2.495 -3.0835
N 1.8259 3.7794 -1.9065
H 3.5862 4.6034 -2.6132
C 3.6849 4.5348 -0.4665
H 5.733 3.2707 -2.7594
C 4.6074 2.8095 -4.5177
C 5.7542 1.1486 -3.0355
H 3.3389 3.8637 0.3297
C 3.0105 5.8951 -0.2919
C 5.1988 4.693 -0.3465
H 5.0827 0.338 -3.3121
H 6.13 0.9502 -2.0341
H 6.5958 1.1448 -3.7246
H 3.9537 2.035 -4.9156
H 5.4858 2.8636 -5.1571
H 4.0871 3.7626 -4.5767
H 5.4458 5.1707 0.599
H 5.5791 5.3172 -1.1525
H 5.704 3.7316 -0.3825
H 3.2166 6.2958 0.698
H 1.9355 5.8104 -0.4211
H 3.3881 6.5961 -1.0328
H 2.8889 1.0896 -3.255
H 1.7107 3.0775 -3.8509
H 1.4606 3.5063 -0.9966
H -4.5719 3.2288 -2.3819
H -3.4751 0.8605 -4.8363
H -3.0645 3.6617 -4.2278
H -0.4631 -1.021 -0.2029

