%chk=_1_alde1_3_ami4_1_opt_cfm_pbe.chk
%mem=60000mb
%nprocshared=32

#P PBE1PBE/Def2TZVP SP SCF=(YQC,MaxCycle=900) int=(Grid=Superfinegrid) EmpiricalDispersion=GD3 SCRF=(PCM,Solvent=Chloroform)

_1_alde1_3_ami4_1_opt_cfm_pbe

0 1
C -1.1953 1.024 0.2467
C -1.2729 0.4659 1.6425
C -2.349 1.1283 -0.5174
C -2.3014 1.674 -1.7902
H -3.2813 0.7675 -0.1099
C -1.0899 2.1215 -2.2956
C 0.0687 2.0246 -1.5401
H -1.0481 2.5479 -3.286
C 0.0107 1.4743 -0.2685
C 1.3748 2.4877 -2.1263
H 0.91 1.3952 0.3249
C -3.5494 1.8217 -2.618
C -2.1945 0.7031 3.7224
C -2.8133 -0.5723 3.1054
N -1.696 1.4769 2.5969
N -2.2816 -0.5987 1.746
C -4.2021 2.3405 -4.8317
C -4.875 3.2679 -3.7938
N -3.2879 1.5267 -4.0358
N -4.0426 3.1882 -2.6044
C 2.2108 3.7374 -3.9503
C 2.8243 2.3194 -3.8873
N 1.2044 3.7314 -2.8929
N 1.9042 1.5313 -3.0831
H 1.2412 4.5504 -2.301
H 2.1282 2.5971 -1.3236
H 1.1356 1.2007 -3.6606
H -1.9099 -1.5004 1.4793
H -0.272 0.1176 1.9607
H -2.4543 2.0113 2.1809
H -3.3564 0.5379 -4.2355
H -3.2473 3.8148 -2.6963
H -4.3508 1.1812 -2.2046
H -3.9055 -0.4965 3.0539
H -2.5574 -1.4633 3.6873
H -1.3386 0.4393 4.3518
H -2.9014 1.2799 4.3155
H -3.6173 2.9182 -5.5568
H -4.9423 1.7492 -5.3799
H -5.867 2.8848 -3.5343
H -4.9752 4.2957 -4.1373
H 1.7111 3.9107 -4.9101
H 2.9755 4.5094 -3.8163
H 3.7854 2.3482 -3.3642
H 2.973 1.872 -4.8682

