%chk=_1_alde1_3_ami2_2_opt_gas_mp2.chk
%mem=60000mb
%nprocshared=32

#P MP2/aug-cc-pVDZ SP SCF=(YQC,MaxCycle=900) int=(Grid=Superfinegrid)  

_1_alde1_3_ami2_2_opt_gas_mp2

0 1
C -1.1198 -0.3285 -1.1965
C -0.7746 -1.4121 -0.2879
C -2.4466 -0.1077 -1.5679
C -2.7777 0.9253 -2.4367
H -3.2075 -0.7603 -1.1675
C -1.767 1.7464 -2.9382
C -0.4407 1.5395 -2.5779
H -2.0398 2.5421 -3.6145
C -0.1247 0.4982 -1.7044
C 0.6031 2.4031 -3.1103
H 0.9102 0.3485 -1.4367
C -4.1661 1.1427 -2.8161
C -2.0184 -3.0065 2.4589
C -1.2898 -3.2188 1.098
N -3.4547 -2.874 2.2921
C -1.7458 -4.2114 3.36
N -1.6503 -2.1855 0.1884
H -2.2671 -4.0785 4.3037
C -5.8712 2.2784 -3.9357
C -6.3114 3.7065 -3.4946
N -4.5033 2.0684 -3.6042
H -5.9535 2.219 -5.0268
N -5.4352 4.7346 -4.0272
C -7.7289 3.9678 -4.0051
C 2.8151 3.1204 -3.3182
C 3.5396 3.8433 -2.1434
N 1.8174 2.2438 -2.807
H 3.552 2.5023 -3.8433
N 4.0582 2.9049 -1.1641
C 2.5546 4.772 -1.4307
H 1.7023 4.2058 -1.061
H -3.8394 -3.7134 1.8715
H -3.6499 -2.1005 1.6654
H -5.4456 4.7153 -5.0416
H -4.4833 4.5528 -3.7272
H 0.2955 -1.5157 -0.0497
H 0.2662 3.1962 -3.7959
H -0.6815 -4.3139 3.5542
H -2.1042 -5.1274 2.8947
H -6.5417 1.5267 -3.4864
H -7.7655 3.8948 -5.0902
H -8.0345 4.9698 -3.7175
H -8.4279 3.2496 -3.5848
H 2.4103 3.8671 -4.0218
H 2.1958 5.5435 -2.1074
H 3.0498 5.2421 -0.586
C -6.2769 3.8022 -1.968
H -5.2777 3.581 -1.5987
H -6.9781 3.1008 -1.5231
H -6.542 4.8109 -1.6645
H -1.6391 -4.1649 0.6693
H -0.2015 -3.2834 1.2644
C -1.5007 -1.7279 3.1205
H -0.4387 -1.8103 3.3371
H -2.0407 -1.5583 4.0476
H -1.6598 -0.8734 2.4661
H 4.7319 2.2813 -1.5962
H 3.2973 2.3353 -0.8094
C 4.7101 4.651 -2.7053
H 4.3573 5.4045 -3.4045
H 5.4132 4.0 -3.2209
H 5.2317 5.142 -1.8886
H -4.8979 0.4468 -2.3771

