%chk=_1_alde1_2_ami4_2_opt_gas_pbe.chk
%mem=60000mb
%nprocshared=32

#P PBE1PBE/Def2TZVP SP SCF=(YQC,MaxCycle=900) int=(Grid=Superfinegrid) EmpiricalDispersion=GD3 

_1_alde1_2_ami4_2_opt_gas_pbe

0 1
C -1.6077 0.8433 -1.2108
C -2.1616 -0.0813 -0.2091
C -2.4413 1.7354 -1.8783
C -1.9183 2.6164 -2.8225
H -3.501 1.7646 -1.6759
C -0.551 2.5924 -3.0903
C 0.2943 1.7019 -2.4319
H -0.1399 3.2753 -3.8217
C -0.2428 0.828 -1.4903
C 1.722 1.694 -2.7271
H 0.4053 0.1352 -0.9764
C -2.7838 3.5541 -3.5242
O -1.5255 -0.8745 0.4339
C -4.8581 4.4935 -4.0408
C -5.85 3.6872 -4.9142
N -4.0273 3.5908 -3.3175
N -6.7178 2.797 -4.181
C 4.6781 1.2197 -1.1499
C 3.9052 0.917 -2.4395
N 4.4656 2.6079 -0.774
N 2.508 0.8918 -2.1558
H -3.259 0.0112 -0.0814
H 4.985 2.8279 0.0687
H 3.4809 2.7607 -0.5782
H -7.2793 3.3197 -3.5164
H -6.1571 2.1361 -3.6535
H 2.0635 2.4259 -3.4759
H 4.3589 0.5001 -0.38
H 5.7464 1.0826 -1.3359
H 4.1851 -0.0821 -2.7863
H 4.1719 1.6621 -3.2055
H -2.285 4.2292 -4.2374
H -5.2789 3.0861 -5.6274
H -6.4696 4.3927 -5.4742
H -5.4303 5.0725 -3.3079
H -4.2857 5.1857 -4.6811

