%chk=_1_alde1_3_ami1_1_opt_gas_mp2.chk
%mem=60000mb
%nprocshared=32

#P MP2/aug-cc-pVDZ SP SCF=(YQC,MaxCycle=900) int=(Grid=Superfinegrid)  

_1_alde1_3_ami1_1_opt_gas_mp2

0 1
C -1.8511 2.0033 -0.6772
C -2.2543 1.9577 0.772
C -2.7706 2.2799 -1.6756
C -2.3814 2.287 -3.008
H -3.798 2.5032 -1.4293
C -1.0637 2.0096 -3.3391
C -0.1361 1.7282 -2.3477
H -0.7594 2.013 -4.3759
C -0.5361 1.7273 -1.0204
C 1.3067 1.4539 -2.6761
H 0.1836 1.5096 -0.2461
C -3.4055 2.5475 -4.08
C -2.1671 0.675 2.6897
C -1.3027 1.9457 2.9355
N -2.3578 0.5903 1.247
H -3.1602 0.8418 3.1284
C -1.5959 -0.6053 3.3131
N -1.2256 2.5675 1.6214
H -0.2834 1.6498 3.2233
C -1.8479 2.8355 4.0723
H -1.3604 -0.3662 4.3573
C -0.3173 -1.0945 2.6314
C -2.6514 -1.7095 3.2901
H -2.0534 2.1701 4.9198
C -3.142 3.5601 3.7049
C -0.7884 3.8486 4.5057
H -2.9754 -1.888 2.2679
H -3.5198 -1.4247 3.8797
H -2.2461 -2.6328 3.698
H 0.1645 -1.8469 3.2521
H 0.387 -0.2809 2.475
H -0.5405 -1.5513 1.6695
H 0.1109 3.3409 4.8475
H -1.1632 4.4674 5.3182
H -0.5165 4.4995 3.677
H -3.5176 4.106 4.5678
H -3.9108 2.8606 3.3853
H -2.9747 4.2771 2.9029
C -5.6415 3.2487 -4.3712
C -5.4053 1.8339 -4.9751
N -4.4115 3.5179 -3.6395
H -6.4609 3.2061 -3.639
C -6.0406 4.2983 -5.4295
N -4.1647 1.3479 -4.3838
H -5.2153 1.9451 -6.0511
C -6.5881 0.8706 -4.8124
H -6.8377 3.8472 -6.0329
C -4.8927 4.6852 -6.3608
C -6.6032 5.5468 -4.75
H -7.4789 1.4085 -5.159
C -6.8223 0.4338 -3.3658
C -6.3816 -0.3571 -5.6978
H -6.9004 6.2835 -5.4933
H -5.8579 5.9989 -4.0985
H -7.4736 5.2963 -4.1475
H -5.2535 5.3669 -7.1281
H -4.4709 3.8127 -6.8541
H -4.0975 5.1887 -5.8137
H -5.4457 -0.8449 -5.4373
H -6.3397 -0.0731 -6.7467
H -7.1971 -1.0644 -5.5647
H -6.0668 -0.2825 -3.0499
H -7.7935 -0.0489 -3.2813
H -6.8043 1.2822 -2.6858
C 3.2657 0.5601 -1.7023
C 3.48 2.033 -2.1569
N 1.8312 0.361 -1.8502
H 3.5058 0.464 -0.6334
C 4.1672 -0.4411 -2.4549
N 2.1481 2.5915 -2.3544
H 3.9659 2.024 -3.1418
C 4.3627 2.8613 -1.2139
H 5.183 -0.0282 -2.4298
C 3.7638 -0.6378 -3.9154
C 4.1802 -1.7879 -1.7319
H 5.2671 2.2683 -1.0313
C 3.7014 3.1576 0.1329
C 4.764 4.1691 -1.894
H 4.5446 -1.6732 -0.7134
H 4.8268 -2.4923 -2.2509
H 3.1784 -2.2109 -1.6884
H 3.7395 0.3084 -4.4507
H 2.7814 -1.1009 -3.991
H 4.4794 -1.2899 -4.4118
H 3.8738 4.724 -2.179
H 5.3473 3.9738 -2.7908
H 5.3609 4.781 -1.2214
H 4.4464 3.529 0.8334
H 3.2488 2.2655 0.5591
H 2.9338 3.9216 0.0288
H 1.5902 -0.5503 -2.2163
H 1.4133 1.2536 -3.7587
H 1.8146 2.9892 -1.4815
H -1.2969 3.5757 1.6522
H -3.2447 2.4332 0.9008
H -1.5964 0.0589 0.8355
H -4.0936 4.4735 -3.73
H -4.3684 0.8769 -3.5072
H -2.8961 2.862 -5.0106

