%chk=_1_alde1_3_ami1_2_opt_gas_pbe.chk
%mem=60000mb
%nprocshared=32

#P PBE1PBE/Def2TZVP SP SCF=(YQC,MaxCycle=900) int=(Grid=Superfinegrid) EmpiricalDispersion=GD3 

_1_alde1_3_ami1_2_opt_gas_pbe

0 1
C -2.1709 -0.9412 -1.247
C -2.7723 -1.9714 -0.3772
C -2.96 -0.2854 -2.182
C -2.4246 0.7279 -2.9791
H -4.0047 -0.5313 -2.2967
C -1.0863 1.0758 -2.8338
C -0.2777 0.4044 -1.9194
H -0.6514 1.8628 -3.4313
C -0.823 -0.6083 -1.1339
C 1.1237 0.7552 -1.7488
H -0.2015 -1.1461 -0.4304
C -3.2591 1.4161 -3.9543
C -0.8616 -1.8019 2.4014
C -2.0643 -1.1112 1.7135
N -0.0529 -2.4485 1.3684
H -1.272 -2.5452 3.1048
C 0.0145 -0.8196 3.2048
N -2.723 -2.0787 0.8762
H -1.6832 -0.2584 1.1335
C -3.1223 -0.5671 2.7008
H -0.6487 -0.2278 3.8424
C 0.8027 0.13 2.3049
C 0.9733 -1.5783 4.1251
H -2.6248 0.1338 3.3783
C -3.7835 -1.6726 3.5194
C -4.1819 0.21 1.9187
H 1.4893 -0.881 4.7813
H 1.7265 -2.1146 3.5517
H 0.4334 -2.2922 4.7442
H 1.4404 0.7707 2.91
H 0.1382 0.7644 1.7243
H 1.427 -0.4368 1.6201
H -4.7324 -0.4606 1.263
H -3.7215 0.9862 1.3099
H -4.8856 0.6807 2.6016
H -3.0874 -2.1059 4.2327
H -4.1401 -2.4554 2.8562
H -4.6268 -1.2685 4.0749
C -5.2728 1.8008 -5.0841
C -6.39 2.5197 -4.2903
N -4.4701 1.1082 -4.1215
H -4.6863 2.5772 -5.6068
C -5.7696 0.7735 -6.123
N -5.7431 3.5716 -3.5116
H -6.8615 1.7603 -3.6414
C -7.4886 3.1418 -5.1734
H -6.4021 1.2987 -6.8444
C -6.5689 -0.3533 -5.4748
C -4.5735 0.1981 -6.882
H -7.929 2.3419 -5.7758
C -6.9271 4.2194 -6.0967
C -8.6084 3.7265 -4.3093
H -4.9137 -0.4734 -7.6671
H -3.9283 -0.3593 -6.2064
H -3.9887 0.9933 -7.3405
H -6.8177 -1.1085 -6.2175
H -7.4942 0.0187 -5.0434
H -5.9787 -0.8152 -4.6885
H -8.9488 3.0015 -3.572
H -9.4558 3.9986 -4.9348
H -8.2723 4.6222 -3.793
H -6.2752 3.7878 -6.8513
H -6.3553 4.9347 -5.5125
H -7.7373 4.7398 -6.6025
C 2.9993 2.1055 -2.0492
C 3.0184 3.38 -1.1381
N 1.6353 1.7651 -2.3033
H 3.5084 1.2905 -1.5051
C 3.7569 2.292 -3.3803
N 1.8977 4.2733 -1.3687
H 3.9334 3.9442 -1.355
C 3.036 2.9829 0.3538
H 4.782 2.5874 -3.1272
C 3.1392 3.3604 -4.2779
C 3.807 0.9558 -4.1222
H 2.2279 2.2604 0.5207
C 2.7821 4.2059 1.2344
C 4.3651 2.3517 0.7653
H 2.8012 0.6407 -4.392
H 4.2544 0.1835 -3.4991
H 4.3977 1.0473 -5.0308
H 3.6087 3.3354 -5.2594
H 3.2868 4.3552 -3.8643
H 2.0754 3.1727 -4.398
H 5.1806 3.0514 0.5946
H 4.5792 1.4395 0.2142
H 4.3431 2.1038 1.8243
H 3.5789 4.933 1.0988
H 2.7525 3.9126 2.2815
H 1.8426 4.6797 0.9719
H 1.0309 3.7631 -1.2274
H 1.8952 4.5924 -2.3292
H -0.6185 -3.1475 0.8964
H 0.7259 -2.9327 1.8024
H -6.4044 3.9768 -2.8591
H -4.9842 3.1756 -2.967
H -3.3618 -2.7292 -0.8907
H -2.7661 2.2153 -4.5299
H 1.7017 0.0881 -1.0894

