%chk=_1_alde1_2_ami2_2_opt_gas_mp2.chk
%mem=60000mb
%nprocshared=32

#P MP2/aug-cc-pVDZ SP SCF=(YQC,MaxCycle=900) int=(Grid=Superfinegrid)  

_1_alde1_2_ami2_2_opt_gas_mp2

0 1
C -2.1249 1.4052 0.3148
C -2.8063 0.6719 1.3915
C -2.8578 2.0313 -0.6864
C -2.2073 2.7281 -1.7051
H -3.9364 1.9933 -0.6917
C -0.8176 2.7882 -1.7064
C -0.0693 2.1644 -0.7072
H -0.2889 3.3233 -2.4809
C -0.7312 1.4737 0.3013
C 1.3854 2.2339 -0.7155
H -0.1826 0.9796 1.0903
C -2.9691 3.3879 -2.7568
O -2.2577 0.1035 2.3
C -4.9555 3.977 -3.8326
C -5.7917 2.914 -4.609
N -4.2299 3.3519 -2.7815
N -6.6453 2.1401 -3.7274
C 3.9768 2.2004 -2.9253
C 3.4353 2.8762 -1.6284
N 3.3998 2.7798 -4.1242
N 2.0134 2.8466 -1.6222
H -3.9109 0.68 1.3042
H 3.6267 3.7666 -4.185
H 2.3896 2.6973 -4.0882
H -7.3033 2.7458 -3.2488
H -6.0789 1.6814 -3.0222
H -2.3776 3.9204 -3.5171
H 1.8949 1.7262 0.1172
C -4.8475 1.9449 -5.323
C 5.4936 2.386 -2.9809
H 3.7373 3.9292 -1.6434
H 3.8782 2.3895 -0.7439
H 5.8763 1.9351 -3.8921
H 5.9708 1.9158 -2.1253
H 5.7511 3.4432 -2.9854
H -5.6526 4.6837 -3.3692
H -4.306 4.5243 -4.5357
H -4.2354 2.4708 -6.0512
H -5.4315 1.1842 -5.8329
H -4.1941 1.4548 -4.6041
C -6.6761 3.6325 -5.6288
H -7.345 4.3318 -5.1316
H -7.2775 2.9001 -6.1598
H -6.0706 4.1806 -6.3457
C 3.6303 0.7104 -2.9066
H 2.5534 0.5732 -2.8349
H 4.1035 0.2165 -2.0617
H 3.9764 0.2491 -3.827

