%chk=_1_alde1_2_ami1_2_opt_cfm_mp2.chk
%mem=60000mb
%nprocshared=32

#P MP2/aug-cc-pVDZ SP SCF=(YQC,MaxCycle=900) int=(Grid=Superfinegrid)  SCRF=(PCM,Solvent=Chloroform)

_1_alde1_2_ami1_2_opt_cfm_mp2

0 1
C -1.4585 2.072 -0.8399
C -1.797 1.7967 0.5647
C -2.4601 2.1458 -1.8029
C -2.1399 2.4063 -3.1336
H -3.4969 2.0013 -1.5402
C -0.8055 2.5944 -3.4872
C 0.2074 2.5237 -2.5332
H -0.5524 2.7981 -4.5193
C -0.1283 2.2601 -1.208
C 1.5964 2.7255 -2.922
H 0.6487 2.2046 -0.4616
C -3.1829 2.4802 -4.147
O -1.0063 1.7126 1.4679
C -5.4173 2.4293 -4.8501
C -6.3877 3.5705 -4.4163
N -4.4008 2.3446 -3.852
H -5.006 2.6668 -5.847
C -6.1135 1.052 -4.9457
N -7.0324 3.305 -3.1457
H -7.169 3.6622 -5.1779
C -5.6675 4.9308 -4.315
H -6.4467 0.7671 -3.9423
C -5.1097 0.0021 -5.4225
C -7.3113 1.0801 -5.892
H -4.901 4.8471 -3.5363
C -6.6733 6.002 -3.8961
C -5.0019 5.3449 -5.6256
H -8.1194 1.6958 -5.5061
H -7.6944 0.0708 -6.0271
H -7.016 1.4661 -6.8657
H -5.5798 -0.978 -5.459
H -4.2572 -0.0524 -4.7491
H -4.7491 0.2469 -6.4201
H -4.6479 6.3707 -5.5482
H -5.7133 5.2904 -6.4475
H -4.1473 4.7169 -5.8623
H -6.1648 6.9435 -3.7025
H -7.1978 5.6892 -2.9991
H -7.4039 6.1589 -4.6865
C 4.6508 1.492 -2.1118
C 3.8945 2.8095 -2.469
N 4.6223 1.1934 -0.6949
H 5.6978 1.6098 -2.4106
C 4.0791 0.2769 -2.871
N 2.5338 2.6245 -2.0864
H 4.0038 3.0048 -3.5506
C 4.4428 4.0404 -1.7107
H 3.0377 0.1451 -2.5567
C 4.8669 -0.9735 -2.4831
C 4.1234 0.4538 -4.3873
H 4.2579 3.8925 -0.6418
C 3.6824 5.2921 -2.1491
C 5.9376 4.2408 -1.9479
H 3.4241 1.2127 -4.7277
H 3.8586 -0.4828 -4.8732
H 5.125 0.7336 -4.7085
H 4.8934 -1.0754 -1.4031
H 5.8889 -0.9006 -2.8486
H 4.4071 -1.8595 -2.9145
H 6.2559 5.1805 -1.5015
H 6.1504 4.2804 -3.0145
H 6.5291 3.4433 -1.5061
H 2.6165 5.1817 -1.9627
H 3.8325 5.4757 -3.2117
H 4.0376 6.1599 -1.5979
H -2.8838 1.6664 0.7409
H 3.6576 1.1619 -0.382
H 5.0987 1.9122 -0.1638
H -7.6233 2.4845 -3.2056
H -6.3189 3.1263 -2.4468
H 1.7677 2.972 -3.9824
H -2.838 2.6575 -5.1781

