%chk=_1_alde1_3_ami4_2_opt_gas_mp2.chk
%mem=60000mb
%nprocshared=32

#P MP2/aug-cc-pVDZ SP SCF=(YQC,MaxCycle=900) int=(Grid=Superfinegrid)  

_1_alde1_3_ami4_2_opt_gas_mp2

0 1
C -0.872 -0.345 -1.1043
C -0.9763 -1.6702 -0.4649
C -1.9469 0.5299 -1.1924
C -1.8029 1.7806 -1.7969
H -2.924 0.2578 -0.8281
C -0.5718 2.1486 -2.3227
C 0.5137 1.2753 -2.2575
H -0.4284 3.1084 -2.7946
C 0.353 0.0323 -1.6541
C 1.8029 1.654 -2.8188
H 1.1917 -0.6484 -1.5975
C -2.9389 2.6896 -1.8681
C -3.7274 -1.4104 1.4381
C -2.2088 -1.1167 1.4918
N -4.0997 -2.7471 1.8404
N -1.5185 -2.0151 0.6181
H -1.8536 -1.3407 2.5044
C -5.1426 3.316 -1.3961
C -6.3839 2.5511 -1.8665
N -4.0378 2.4162 -1.3143
N -6.813 1.645 -0.817
C 3.2595 3.1182 -3.9053
C 3.7866 4.3718 -3.1965
N 1.9813 2.771 -3.3759
H 4.0027 2.3103 -3.8133
N 5.0715 4.7461 -3.7608
H 4.9631 5.0123 -4.7343
H 5.4557 5.5417 -3.2633
H -3.8164 -2.9162 2.8003
H -3.6127 -3.4219 1.2592
H -7.5458 1.0294 -1.1527
H -6.0246 1.072 -0.534
H -0.4636 -2.4705 -0.9959
H -2.7701 3.6266 -2.4218
H 2.6045 0.9037 -2.7295
H -2.0305 -0.0539 1.2782
H 3.1215 3.3508 -4.9669
H -4.9446 4.1735 -2.0608
H -5.3425 3.6826 -0.3846
H -6.1419 2.0453 -2.8178
H -7.1936 3.2625 -2.0561
H -4.0831 -1.2657 0.4139
H -4.2426 -0.6965 2.0863
H 3.0184 5.1587 -3.2671
H 3.9381 4.1432 -2.1376

