%chk=_1_alde1_2_ami3_1_opt_dcm_pbe.chk
%mem=60000mb
%nprocshared=32

#P PBE1PBE/Def2TZVP SP SCF=(YQC,MaxCycle=900) int=(Grid=Superfinegrid) EmpiricalDispersion=GD3 SCRF=(PCM,Solvent=Dichloromethane)

_1_alde1_2_ami3_1_opt_dcm_pbe

0 1
C -1.3676 1.3212 -1.1759
C -1.6605 0.5482 0.0354
C -2.3374 2.1611 -1.7204
C -2.06 2.894 -2.8618
H -3.3097 2.2536 -1.2608
C -0.8044 2.7909 -3.4505
C 0.1715 1.9564 -2.9161
H -0.5834 3.3685 -4.3367
C -0.1149 1.2188 -1.7807
C 1.5336 1.9067 -3.568
H 0.627 0.5572 -1.3617
C -3.1031 3.7834 -3.4987
O -0.8931 -0.1872 0.6032
C -5.2203 2.8742 -3.6233
C -4.7722 3.2682 -5.0412
N -4.3817 3.7112 -2.7764
H -4.9157 1.8338 -3.4377
C -6.7247 2.9858 -3.4914
N -3.3267 3.3873 -4.911
H -5.1544 4.2764 -5.2622
C -5.3291 2.2937 -6.0588
H -7.0394 4.0148 -3.6829
C -7.3463 2.043 -4.5271
H -4.9644 1.2857 -5.8449
C -6.8569 2.3367 -5.9484
H -8.4339 2.1307 -4.4964
H -7.088 1.0142 -4.2654
H -7.203 3.3286 -6.2483
H -7.2942 1.6104 -6.6359
C 3.325 1.7596 -2.119
C 3.5109 3.0026 -3.0064
N 2.4134 0.9378 -2.9021
H 2.7816 2.0574 -1.2107
C 4.6683 1.1803 -1.7281
N 2.1698 3.2475 -3.5195
H 4.1337 2.727 -3.8711
C 4.2018 4.1045 -2.2297
H 5.2228 0.8881 -2.6237
C 5.432 2.2687 -0.9665
H 3.5977 4.3806 -1.3615
C 5.5615 3.5629 -1.7754
H 4.9038 2.4807 -0.0341
H 6.4286 1.9053 -0.7088
H 6.1766 3.3734 -2.6583
H 6.0715 4.315 -1.1706
H 2.9388 0.408 -3.5903
H 1.408 1.6293 -4.6243
H 1.6583 3.8395 -2.8698
H -4.7937 4.6362 -2.7023
H -2.892 2.4839 -5.0808
H -2.733 4.8185 -3.4901
H -2.692 0.6978 0.4161
H -7.0494 2.7112 -2.4866
H -5.015 2.5638 -7.0682
H 4.5422 0.2969 -1.1006
H 4.336 4.9926 -2.8493

