%chk=_1_alde1_3_ami3_1_opt_cfm_mp2.chk
%mem=60000mb
%nprocshared=32

#P MP2/aug-cc-pVDZ SP SCF=(YQC,MaxCycle=900) int=(Grid=Superfinegrid)  SCRF=(PCM,Solvent=Chloroform)

_1_alde1_3_ami3_1_opt_cfm_mp2

0 1
C -1.4505 0.7346 -1.771
C -1.3763 0.3993 -0.3011
C -2.6569 1.0252 -2.3846
C -2.6959 1.3696 -3.7309
H -3.5705 0.9683 -1.8143
C -1.5186 1.4255 -4.4572
C -0.3027 1.1355 -3.8489
H -1.5517 1.6814 -5.5044
C -0.2731 0.7932 -2.5078
C 0.9654 1.2485 -4.6599
H 0.6697 0.5571 -2.0401
C -4.0234 1.7214 -4.3575
C -1.5759 1.6816 1.6251
C -2.9772 1.2854 1.1279
N -0.748 1.52 0.4393
N -2.7083 0.1377 0.274
C -4.0581 3.2353 -6.1171
C -4.9843 3.7375 -4.9956
N -3.9334 1.8147 -5.826
N -4.5027 3.0198 -3.8249
C 2.9334 1.8259 -3.5727
C 2.6701 2.8256 -4.7125
N 2.1258 0.6764 -3.9534
N 1.2443 2.6737 -4.9607
H 2.6548 0.0779 -4.5792
H 0.8206 0.7276 -5.6166
H 0.7226 3.2567 -4.3103
H -0.7372 -0.4854 -0.1724
H -0.8012 2.3622 -0.129
H -4.7007 1.3081 -6.2553
H -3.7157 3.5212 -3.4194
H -4.7597 0.9544 -4.0795
C -3.9241 1.1116 2.2974
H -2.6866 -0.7085 0.8336
C -4.5925 3.6526 -7.4717
C 4.4223 1.6305 -3.3734
H -3.3543 2.0868 0.4755
C -3.9814 2.4478 3.0451
H -3.5553 0.3251 2.961
H -4.9199 0.8282 1.9526
C -2.5943 2.9315 3.4789
H -4.6187 2.3486 3.9259
H -4.4328 3.1969 2.3903
C -1.6201 3.0369 2.3009
H -2.6889 3.9046 3.9649
H -2.1846 2.2324 4.2118
H -0.6296 3.3286 2.6539
H -1.9677 3.7931 1.5922
H -1.2346 0.9283 2.351
H -3.0624 3.6794 -5.9707
C -4.6654 5.1831 -7.4854
H -5.5877 3.2275 -7.6261
H -3.9416 3.2979 -8.2724
C -5.5024 5.7357 -6.3278
H -5.0929 5.5218 -8.4312
H -3.6512 5.5831 -7.4164
C -4.9997 5.2521 -4.9634
H -6.5401 5.4173 -6.4526
H -5.4838 6.8269 -6.3599
H -6.0034 3.3711 -5.191
H -5.6516 5.6183 -4.1685
H -3.9903 5.6292 -4.7797
H 2.4965 2.2302 -2.6476
C 5.0238 2.9981 -3.033
H 4.8722 1.2396 -4.2898
H 4.6169 0.9207 -2.5679
C 4.7067 4.0539 -4.0963
H 6.1068 2.9072 -2.929
H 4.6236 3.3275 -2.0712
C 3.2013 4.1959 -4.3447
H 5.1924 3.7742 -5.0342
H 5.1191 5.0149 -3.7826
H 3.016 4.9134 -5.1457
H 2.7036 4.5558 -3.4405
H 3.1858 2.4705 -5.6175

