%chk=_1_alde1_3_ami2_1_opt_dcm_mp2.chk
%mem=60000mb
%nprocshared=32

#P MP2/aug-cc-pVDZ SP SCF=(YQC,MaxCycle=900) int=(Grid=Superfinegrid)  SCRF=(PCM,Solvent=Dichloromethane)

_1_alde1_3_ami2_1_opt_dcm_mp2

0 1
C -1.7959 1.1135 -0.9944
C -2.1743 0.3463 0.2446
C -2.7535 1.5642 -1.8882
C -2.3758 2.2388 -3.041
H -3.8036 1.4064 -1.6938
C -1.031 2.4581 -3.2997
C -0.0653 2.0086 -2.4125
H -0.736 2.9821 -4.1973
C -0.4548 1.3381 -1.2637
C 1.4 2.2633 -2.6464
H 0.2944 0.9877 -0.5709
C -3.4277 2.6824 -4.0225
C -1.8146 -1.593 1.4086
C -1.0881 -0.4754 2.2041
N -1.9782 -1.0827 0.0581
N -1.3111 0.711 1.3741
C -5.793 2.7805 -4.2541
C -5.1113 2.0011 -5.4124
N -4.6737 3.0574 -3.351
N -3.8028 1.6017 -4.921
C 3.4808 1.5797 -1.7
C 3.3091 3.1225 -1.7192
N 2.2051 1.1049 -2.2417
N 1.8811 3.3665 -1.8303
H 2.3164 0.4328 -2.9885
H 1.5708 2.5375 -3.7042
H 1.4467 3.298 -0.9137
H -3.2447 0.5045 0.4734
H -1.1201 -1.2206 -0.4694
H -4.6621 4.0094 -3.0106
H -3.884 0.7482 -4.3747
H -3.029 3.5027 -4.6501
H -4.9574 2.6663 -6.2684
H -5.6879 1.1382 -5.7401
H 3.79 3.5389 -2.6106
H 3.724 3.6085 -0.8382
C 0.4204 -0.7422 2.2715
H 0.8193 -0.8898 1.2708
H 0.6262 -1.627 2.8693
H 0.9274 0.1098 2.718
H -1.6712 1.4983 1.8961
C -1.6597 -0.3231 3.6131
C -6.4716 4.0544 -4.7594
H -7.2353 3.8091 -5.494
H -5.7423 4.715 -5.226
H -6.9436 4.5838 -3.9337
C -6.807 1.8997 -3.5161
H -6.3323 0.9773 -3.1906
H -7.6459 1.6579 -4.1643
H -7.1796 2.4198 -2.637
C 4.6782 1.135 -2.5389
H 4.5555 1.4479 -3.5748
H 4.7772 0.0514 -2.5112
H 5.5939 1.5758 -2.1515
C 3.6195 1.0608 -0.2637
H 3.6096 -0.0264 -0.2604
H 2.7875 1.4109 0.3424
H 4.5508 1.4056 0.1793
H -1.5464 -1.2519 4.1677
H -2.7188 -0.0733 3.5704
H -1.1363 0.4661 4.1497
H -1.2737 -2.5374 1.4097
H -2.813 -1.7582 1.8272

