%chk=_1_alde1_2_ami2_1_opt_dcm_mp2.chk
%mem=60000mb
%nprocshared=32

#P MP2/aug-cc-pVDZ SP SCF=(YQC,MaxCycle=900) int=(Grid=Superfinegrid)  SCRF=(PCM,Solvent=Dichloromethane)

_1_alde1_2_ami2_1_opt_dcm_mp2

0 1
C -1.7621 1.4572 0.0699
C -2.2361 1.0291 1.3902
C -2.6818 1.7663 -0.9315
C -2.2451 2.1715 -2.1813
H -3.7383 1.7022 -0.7191
C -0.882 2.2634 -2.4294
C 0.0454 1.9479 -1.4441
H -0.5219 2.5717 -3.3994
C -0.3967 1.5485 -0.1936
C 1.5219 2.0892 -1.7115
H 0.3202 1.312 0.5794
C -3.2468 2.4604 -3.2684
O -3.3893 0.8876 1.7092
C -5.606 2.5776 -3.5644
C -4.9288 1.5803 -4.5432
N -4.4867 3.0125 -2.7242
C -6.6334 1.869 -2.6755
N -3.6461 1.2383 -3.9495
H -4.7321 2.0724 -5.5012
H -7.4754 1.5202 -3.2685
C 3.2571 3.5591 -1.9415
C 3.0137 2.9519 -3.3502
N 2.0277 3.3515 -1.1933
H 3.5238 4.6135 -1.9732
N 1.8276 2.1164 -3.1408
C 2.6644 4.0424 -4.3687
H 2.3758 3.5883 -5.3133
H 1.3593 4.0829 -1.421
H 2.0671 1.2825 -1.1833
H 1.9178 1.1914 -3.539
H -4.4502 4.0144 -2.5956
H -3.7759 0.5108 -3.2513
H -2.789 3.122 -4.0291
H -1.4177 0.8308 2.1124
H -5.5269 0.6893 -4.7235
H -6.1747 1.019 -2.1764
H -6.9979 2.5529 -1.9133
H 4.0542 3.0093 -1.4311
H 3.5178 4.6945 -4.5375
H 1.8289 4.6372 -4.0075
C 4.221 2.1478 -3.8316
H 5.0994 2.7863 -3.8904
H 4.0285 1.7328 -4.8191
H 4.4336 1.33 -3.1446
C -6.2647 3.7375 -4.3109
H -6.732 4.4225 -3.606
H -7.0296 3.3635 -4.9875
H -5.5259 4.2859 -4.8937

