%chk=_1_alde1_2_ami3_2_opt_gas_pbe.chk
%mem=60000mb
%nprocshared=32

#P PBE1PBE/Def2TZVP SP SCF=(YQC,MaxCycle=900) int=(Grid=Superfinegrid) EmpiricalDispersion=GD3 

_1_alde1_2_ami3_2_opt_gas_pbe

0 1
C -1.3091 0.9866 -2.0738
C -1.628 -0.2097 -1.28
C -2.3264 1.6736 -2.7327
C -2.0391 2.8083 -3.4862
H -3.3453 1.327 -2.6607
C -0.7197 3.2476 -3.5733
C 0.3076 2.5698 -2.9204
H -0.4888 4.1286 -4.1571
C 0.0043 1.4364 -2.1696
C 1.6817 3.0441 -3.0238
H 0.8091 0.9212 -1.6682
C -3.1013 3.5302 -4.1758
O -2.7274 -0.6765 -1.1328
C -5.3308 3.8637 -4.7952
C -6.2894 4.4401 -3.73
N -4.2981 3.1439 -4.1214
H -4.9295 4.7144 -5.3771
C -6.0614 2.9025 -5.742
N -7.1535 5.4272 -4.3546
H -5.6771 4.9861 -2.9993
C -7.0172 3.3015 -2.9986
C -6.7607 1.7899 -4.9694
C -7.7476 2.3761 -3.9666
C 4.7969 1.8664 -3.3115
C 3.969 2.9315 -2.5594
N 6.0585 2.4537 -3.7276
H 4.2532 1.6199 -4.2337
C 4.9169 0.5897 -2.4642
N 2.6278 2.4532 -2.4389
H 4.0213 3.867 -3.1465
C 4.5298 3.1851 -1.1541
C 5.494 0.8746 -1.0812
C 4.6227 1.8915 -0.353
H -0.7409 -0.6734 -0.8032
H 6.5751 1.7942 -4.2993
H 6.6306 2.6721 -2.9194
H -7.7767 4.9803 -5.0181
H -7.7287 5.8765 -3.6502
H -8.5311 2.9252 -4.4973
H -8.233 1.5738 -3.4073
H -6.0098 1.2071 -4.4351
H -7.2791 1.1281 -5.6667
H -6.7856 3.4707 -6.3292
H -5.3325 2.4749 -6.4341
H -6.2733 2.7255 -2.4472
H -7.7215 3.7296 -2.2794
H -2.7905 4.4241 -4.7405
H 1.8364 3.944 -3.6401
H 3.6193 1.4825 -0.2295
H 5.0338 2.1007 0.637
H 5.5152 3.6454 -1.2468
H 3.8765 3.8948 -0.6416
H 5.5422 -0.135 -2.9936
H 3.9188 0.1639 -2.3548
H 6.5141 1.2597 -1.1694
H 5.5447 -0.0537 -0.5083

