%chk=_1_alde1_2_ami4_1_opt_cfm_mp2.chk
%mem=60000mb
%nprocshared=32

#P MP2/aug-cc-pVDZ SP SCF=(YQC,MaxCycle=900) int=(Grid=Superfinegrid)  SCRF=(PCM,Solvent=Chloroform)

_1_alde1_2_ami4_1_opt_cfm_mp2

0 1
C -1.2081 1.2297 -0.1228
C -1.0556 0.6211 1.2033
C -2.4766 1.4984 -0.6334
C -2.6146 2.0807 -1.883
H -3.356 1.2484 -0.0576
C -1.4808 2.3881 -2.6243
C -0.2111 2.1285 -2.1253
H -1.6062 2.843 -3.5951
C -0.0782 1.5507 -0.8741
C 1.0191 2.5068 -2.9094
H 0.9004 1.3279 -0.4768
C -3.9923 2.3251 -2.4453
O -0.0081 0.3869 1.7505
C -5.5878 1.5264 -3.8781
C -4.9697 2.7665 -4.557
N -4.5833 1.085 -2.9242
H -5.8459 0.7335 -4.5769
N -3.9713 3.2368 -3.5993
H -5.7208 3.5229 -4.7941
C 3.3462 2.2493 -2.5312
C 2.9623 3.7196 -2.7884
N 2.0961 1.5176 -2.7197
H 3.6755 2.1176 -1.4934
N 1.5473 3.7867 -2.4604
H 3.0732 3.9609 -3.8504
H 2.1383 0.8664 -3.4915
H 0.7566 2.6157 -3.9762
H 1.4349 3.8507 -1.4519
H -3.8667 0.5472 -3.4049
H -4.116 4.1968 -3.3175
H -4.6488 2.7062 -1.6406
H -2.0206 0.383 1.6956
H -4.4578 2.4838 -5.4847
H 4.1404 1.9011 -3.1931
H -6.4823 1.8097 -3.3146
H 3.5392 4.4302 -2.2002

