%chk=_2_alde1_3_ami2_2_opt_gas_mp2.chk
%mem=60000mb
%nprocshared=32

#P MP2/aug-cc-pVDZ SP SCF=(YQC,MaxCycle=900) int=(Grid=Superfinegrid)  

_2_alde1_3_ami2_2_opt_gas_mp2

0 1
C -4.2754 -1.8598 -0.2684
C -3.675 -1.7578 1.0611
C -4.9757 -3.0076 -0.6189
C -5.5221 -3.1428 -1.8958
H -5.1045 -3.8181 0.0846
C -5.3732 -2.1161 -2.8202
C -4.6878 -0.95 -2.4788
H -5.7871 -2.1951 -3.814
C -4.1405 -0.8311 -1.2044
C -4.5563 0.1281 -3.4595
H -3.5951 0.0547 -0.9135
C -6.2521 -4.3684 -2.2496
H -4.1434 1.0668 -3.0724
H -3.9536 -2.5627 1.7539
C -0.334 0.2032 -1.2321
C -0.4465 -0.6081 -0.0308
C -0.968 -0.2415 -2.3901
C -1.0632 0.584 -3.505
H -1.4482 -1.2108 -2.4001
C -0.4467 1.8327 -3.4858
C 0.2496 2.2608 -2.3585
H -0.5279 2.4603 -4.3604
C 0.279 1.4511 -1.2238
C 0.9128 3.5571 -2.3658
H 0.7699 1.7997 -0.3303
C -1.9055 0.1728 -4.6188
H -2.1445 -0.9002 -4.6782
C -0.68 -0.913 2.244
C -2.1809 -0.638 2.5673
N -0.2934 -0.1213 1.1226
H -0.5664 -1.9933 2.0552
N -2.886 -0.8161 1.3307
C -2.3531 0.8377 2.9442
O -6.4253 -5.3095 -1.5186
C -4.7887 0.8942 -5.7081
C -3.3859 0.6346 -6.3469
N -4.9248 -0.0654 -4.6511
C -5.8693 0.5556 -6.7396
N -2.3858 1.0258 -5.4172
H -3.2946 1.2573 -7.2387
C 2.2326 5.2301 -1.4122
C 3.7613 5.0143 -1.1976
N 1.5585 3.9788 -1.368
H 2.0628 5.7776 -2.3548
N 4.0409 4.2626 0.0122
C 4.4431 6.3788 -1.0879
H -0.7614 -1.651 -0.1943
H 0.8146 4.1413 -3.2946
H 3.5638 3.3682 -0.0289
H -6.6495 -4.3652 -3.2839
H -0.0759 -0.6234 3.1057
C -2.6109 -1.5408 3.728
C -4.8973 2.3624 -5.284
H -3.3299 -0.43 -6.6201
H 1.8546 5.8328 -0.579
C 4.3363 4.2338 -2.3813
H -5.7432 1.1524 -7.6388
H -6.8511 0.7564 -6.3178
H -5.8156 -0.4978 -7.0001
H -2.0405 -1.2851 4.6167
H -2.4344 -2.5905 3.5007
H -3.6685 -1.3978 3.9422
H 4.2164 4.7935 -3.3056
H 3.8301 3.2762 -2.4823
H 5.3933 4.0498 -2.2118
H 3.6889 4.7584 0.8244
H -4.9459 2.9927 -6.1677
H -4.0311 2.6609 -4.7
H -5.8005 2.5118 -4.6951
H 4.3033 6.9538 -1.9995
H 5.5066 6.2357 -0.919
H 4.0353 6.9453 -0.2533
H -3.4025 1.0531 3.1321
H -2.0035 1.4572 2.1239
H -1.7775 1.0683 3.8361

