%chk=_2_alde1_4_ami4_1_opt_dcm_pbe.chk
%mem=60000mb
%nprocshared=32

#P PBE1PBE/Def2TZVP SP SCF=(YQC,MaxCycle=900) int=(Grid=Superfinegrid) EmpiricalDispersion=GD3 SCRF=(PCM,Solvent=Dichloromethane)

_2_alde1_4_ami4_1_opt_dcm_pbe

0 1
C -2.267 -2.0681 -1.4417
C -1.6739 -1.6107 -0.1906
C -2.2957 -3.431 -1.7473
C -2.8643 -3.8762 -2.9279
H -1.883 -4.1352 -1.0433
C -3.3906 -2.9584 -3.8255
C -3.3547 -1.5938 -3.5463
H -3.8313 -3.3185 -4.7434
C -2.7992 -1.1547 -2.3446
C -3.855 -0.6407 -4.5278
H -2.781 -0.094 -2.1436
C -2.897 -5.3557 -3.2524
H -4.3228 -1.0752 -5.4271
H -1.845 -0.5537 0.0642
C 0.7109 0.8118 -1.4296
C 0.9793 -0.3804 -0.638
C 0.124 0.6675 -2.6814
C -0.3044 1.7851 -3.3905
H -0.0596 -0.3226 -3.0765
C -0.0732 3.0579 -2.8724
C 0.5602 3.2121 -1.647
H -0.3975 3.918 -3.4354
C 0.9327 2.0899 -0.9195
C 0.8198 4.5854 -1.0966
H 1.3964 2.1938 0.0483
C -1.0931 1.5739 -4.5921
H -1.0284 0.5603 -5.0197
C 1.0919 -1.5375 1.3723
C -0.3711 -1.909 1.7232
N 1.0534 -0.3272 0.6216
N -1.0119 -2.395 0.5467
C -4.4162 -6.0965 -1.698
C -5.1446 -5.783 -3.0428
N -2.9949 -6.1317 -2.0197
N -4.0901 -5.6606 -4.0431
C -4.0895 1.5408 -5.3651
C -2.8015 2.0437 -6.0646
N -3.7227 0.6011 -4.3581
N -1.8757 2.4494 -5.0543
C 0.6486 6.0519 0.6681
C 0.0182 6.687 -0.6134
N 0.8134 4.6372 0.3667
N -0.1347 5.5926 -1.5612
H 1.0462 -1.3262 -1.1975
H 0.0166 4.1063 0.7102
H 1.8178 4.9269 -1.4176
H -1.0737 5.2052 -1.508
H -3.9607 -6.5446 -4.5265
H -2.6934 -7.0864 -2.1895
H -1.988 -5.6163 -3.8059
H 0.7028 7.4228 -1.0434
H -0.9359 7.1743 -0.4153
H 0.0337 6.1978 1.5557
H 1.6362 6.4823 0.8537
H -5.6659 -4.8254 -2.9725
H -5.8632 -6.553 -3.3218
H -4.5873 -5.2899 -0.9815
H -4.7424 -7.0358 -1.2528
H -0.8578 -1.0158 2.1431
H -0.3628 -2.7152 2.4599
H 1.5389 -2.3785 0.8215
H 1.6427 -1.3546 2.2969
H -3.0456 2.9019 -6.6937
H -2.4088 1.223 -6.688
H -4.7637 1.1234 -6.131
H -4.5686 2.3852 -4.8642

