%chk=_2_alde1_3_ami1_2_opt_gas_pbe.chk
%mem=60000mb
%nprocshared=32

#P PBE1PBE/Def2TZVP SP SCF=(YQC,MaxCycle=900) int=(Grid=Superfinegrid) EmpiricalDispersion=GD3 

_2_alde1_3_ami1_2_opt_gas_pbe

0 1
C -3.2487 1.2422 0.4723
C -2.8764 0.3859 1.5884
C -2.6988 2.5144 0.3747
C -2.9145 3.2943 -0.7621
H -2.0752 2.9115 1.1628
C -3.6728 2.7908 -1.8111
C -4.2139 1.508 -1.7363
H -3.8189 3.3597 -2.7164
C -4.0145 0.7515 -0.5863
C -4.7984 0.8974 -2.9216
H -4.4086 -0.2504 -0.5077
C -2.2656 4.603 -0.8797
H -5.0868 -0.1596 -2.8241
H -2.1651 0.8301 2.3011
C -0.8156 -0.4704 -1.1102
C -1.266 -1.5279 -0.2198
C -1.4382 -0.3177 -2.3433
C -1.1556 0.7794 -3.1564
H -2.1776 -1.0268 -2.6825
C -0.2122 1.709 -2.7352
C 0.4496 1.5513 -1.5165
H 0.0254 2.5714 -3.3396
C 0.1345 0.467 -0.7057
C 1.4741 2.5003 -1.1001
H 0.6076 0.3378 0.2559
C -1.9191 1.0003 -4.3765
H -1.7279 1.953 -4.8941
C -1.5798 -2.5247 1.8499
C -2.6266 -1.6684 2.6396
N -0.8843 -1.6247 0.9791
H -2.1473 -3.2704 1.2679
C -0.5768 -3.2533 2.7604
N -3.255 -0.8138 1.6794
H -2.0676 -1.0768 3.3838
C -3.6861 -2.5175 3.3631
H -1.1385 -3.8262 3.5053
C 0.234 -4.2315 1.9099
C -4.4853 -1.612 4.3006
C -4.63 -3.2175 2.3893
O -1.4932 5.0675 -0.0782
C -5.0816 0.7879 -5.2273
C -3.6693 0.5209 -5.8488
N -4.8404 1.5141 -4.0208
H -5.5377 -0.1942 -5.0166
C -6.0056 1.5878 -6.1611
N -2.7946 0.1822 -4.7686
H -3.3455 1.4532 -6.3425
C -3.6862 -0.6175 -6.8865
H -5.9559 1.1408 -7.1597
C -7.4426 1.4802 -5.6516
H -4.5358 -0.4549 -7.558
C -2.3997 -0.5632 -7.7099
C 2.3582 5.8487 -1.3391
C 2.8474 4.3648 -1.4197
N 1.0389 6.0805 -1.8986
H 3.0484 6.4537 -1.9436
C 2.4056 6.4273 0.0895
N 1.7673 3.5093 -1.7944
H 3.2694 4.0654 -0.4451
C 3.976 4.2004 -2.4672
H 1.9004 7.3967 0.0195
C 1.6588 5.5878 1.1247
H 4.7336 4.959 -2.2397
C 4.623 2.8224 -2.3395
H -2.0363 -2.193 -0.6399
H 0.9494 5.5717 -2.7713
H 1.9913 2.2569 -0.1582
H -2.5246 5.154 -1.8037
C 0.3623 -2.2855 3.4751
H -3.1698 -3.2706 3.9671
C -5.5975 3.0556 -6.2527
C -3.8253 -1.9891 -6.2318
C 3.8457 6.6685 0.5389
C 3.4679 4.4135 -3.8902
H 0.3255 5.7239 -1.2711
H -4.1071 -3.9643 1.7977
H -5.0712 -2.4863 1.7181
H -5.4243 -3.718 2.9384
H -0.4189 -4.946 1.4125
H 0.9362 -4.7832 2.5306
H 0.7927 -3.6877 1.1512
H 1.1362 -2.8398 4.0013
H -0.171 -1.6792 4.2025
H 0.8303 -1.6284 2.748
H -4.9999 -0.8442 3.7268
H -3.8307 -1.125 5.0206
H -5.2256 -2.191 4.8477
H 2.1672 4.6447 1.3142
H 0.6435 5.3761 0.8022
H 1.6062 6.1326 2.065
H 3.8941 2.0394 -2.541
H 5.0224 2.673 -1.3379
H 5.4396 2.7225 -3.051
H 3.8583 7.1315 1.5231
H 4.3608 7.3279 -0.1562
H 4.3997 5.7338 0.5973
H 3.0287 5.401 -4.0032
H 2.7151 3.667 -4.1299
H 4.2897 4.3205 -4.5972
H -7.769 0.4424 -5.6267
H -8.1173 2.0361 -6.2982
H -7.5115 1.8891 -4.6457
H -1.5359 -0.6936 -7.0613
H -2.307 0.3922 -8.2224
H -2.3941 -1.3541 -8.4563
H -4.7636 -2.076 -5.6908
H -3.0083 -2.1478 -5.5337
H -3.7983 -2.7669 -6.9917
H -5.6128 3.5033 -5.2633
H -6.2903 3.5936 -6.8957
H -4.598 3.1637 -6.6648

