%chk=_2_alde1_3_ami2_1_opt_cfm_mp2.chk
%mem=60000mb
%nprocshared=32

#P MP2/aug-cc-pVDZ SP SCF=(YQC,MaxCycle=900) int=(Grid=Superfinegrid)  SCRF=(PCM,Solvent=Chloroform)

_2_alde1_3_ami2_1_opt_cfm_mp2

0 1
C -4.9557 -2.8067 -0.5931
C -4.2172 -2.657 0.659
C -5.8052 -3.8956 -0.7692
C -6.5142 -4.0522 -1.9577
H -5.92 -4.6274 0.0195
C -6.3667 -3.1124 -2.977
C -5.5212 -2.0199 -2.8147
H -6.9256 -3.2558 -3.8912
C -4.8186 -1.8743 -1.6199
C -5.377 -1.0466 -3.8953
H -4.1554 -1.0344 -1.4903
C -7.4118 -5.1971 -2.145
H -5.922 -1.3007 -4.8149
H -4.3475 -3.486 1.3695
C 0.2064 1.0476 -0.5491
C -0.061 0.1672 0.5793
C -0.5864 0.9747 -1.6895
C -0.3573 1.8294 -2.7624
H -1.3882 0.2565 -1.7386
C 0.6781 2.7597 -2.6875
C 1.4828 2.8311 -1.56
H 0.8783 3.4292 -3.5115
C 1.2418 1.9801 -0.4921
C 2.5736 3.8667 -1.4772
H 1.8616 2.0464 0.3912
C -1.2098 1.7632 -3.9411
H -1.0241 2.5229 -4.7198
C -1.2386 -1.5605 1.62
C -2.7266 -1.4019 2.0409
N -0.9418 -0.7301 0.5079
H -1.0875 -2.5984 1.304
N -3.5078 -1.64 0.8642
C -2.9899 0.0554 2.4396
O -8.0668 -5.4183 -3.1319
C -4.4501 0.9903 -4.7298
C -2.9674 0.8393 -5.1715
N -4.6792 -0.0135 -3.7338
C -5.3394 0.9239 -5.9793
N -2.1035 0.8822 -4.0464
H -2.7405 1.6176 -5.9228
C 3.0417 6.1013 -1.3547
C 3.5304 5.6312 -2.7525
N 2.0783 5.1094 -0.9055
H 2.6016 7.0965 -1.3714
N 3.0779 4.238 -2.7998
H 0.547 0.3373 1.4845
H 1.1665 5.3066 -1.3097
H 3.3796 3.5031 -0.8105
H 3.7864 3.6018 -3.1402
H -7.4497 -5.8808 -1.2722
H -0.5992 -1.3552 2.4978
C -2.9957 -2.3288 3.2347
C -4.6362 2.3399 -4.0255
H -2.8539 -0.1468 -5.6346
H 3.8775 6.0983 -0.6477
C 2.8305 6.4074 -3.8734
H -5.1332 1.7777 -6.6195
H -6.3892 0.9531 -5.694
H -5.1519 0.0168 -6.5502
H -2.721 -3.3569 3.007
H -4.0492 -2.2942 3.506
H -2.4098 -2.0016 4.0896
H 3.0897 5.9792 -4.8387
H 3.1314 7.452 -3.8596
H 1.7516 6.3475 -3.7522
C 5.0475 5.7621 -2.889
H 5.3492 6.7989 -2.7596
H 5.3682 5.4291 -3.8744
H 5.5515 5.1587 -2.1355
H -4.0155 0.1653 2.7839
H -2.8416 0.6954 1.5746
H -2.315 0.3618 3.2352
H -4.328 3.1557 -4.6753
H -4.0387 2.3555 -3.1185
H -5.6812 2.4766 -3.758

