%chk=_2_alde1_4_ami2_2_opt_cfm_mp2.chk
%mem=60000mb
%nprocshared=32

#P MP2/aug-cc-pVDZ SP SCF=(YQC,MaxCycle=900) int=(Grid=Superfinegrid)  SCRF=(PCM,Solvent=Chloroform)

_2_alde1_4_ami2_2_opt_cfm_mp2

0 1
C -3.9992 -2.1149 -1.8823
C -4.1306 -2.469 -0.4756
C -3.4057 -2.9911 -2.7828
C -3.1976 -2.6134 -4.1104
H -3.1006 -3.9799 -2.4758
C -3.5438 -1.3293 -4.5177
C -4.1394 -0.4397 -3.6249
H -3.3553 -0.9962 -5.527
C -4.3917 -0.8517 -2.3218
C -4.4218 0.937 -3.9985
H -4.8637 -0.19 -1.6133
C -2.6049 -3.543 -5.0609
H -4.99 1.5183 -3.2571
H -3.5407 -3.3392 -0.1479
C -2.2111 1.0061 0.174
C -3.3986 0.585 0.9064
C -2.3574 1.6889 -1.0278
C -1.2483 2.0022 -1.8122
H -3.3328 1.9664 -1.3946
C 0.0206 1.6711 -1.3532
C 0.1879 1.0263 -0.1266
H 0.9015 1.9033 -1.9327
C -0.9319 0.6788 0.6208
C 1.521 0.7078 0.363
H -0.8364 0.1483 1.5561
C -1.4195 2.6003 -3.1327
H 1.5603 0.1623 1.3206
H -0.5175 2.5857 -3.7562
C -4.5057 -0.7687 2.4967
C -4.8181 -2.0806 1.7184
N -3.3266 -0.2152 1.8787
N -4.8378 -1.7956 0.322
C -1.6983 -5.6026 -5.6827
C -0.2942 -6.055 -5.1824
N -2.2916 -4.7211 -4.7356
N -0.3476 -6.611 -3.8417
C -4.147 2.8657 -5.2344
C -2.8102 3.554 -4.8253
N -3.9956 1.4561 -5.0675
N -2.534 3.0531 -3.5051
C 4.4987 2.1112 0.7527
C 3.848 0.7776 0.2692
N 3.7257 2.7465 1.8048
N 2.5607 1.0358 -0.2738
H -0.7395 -5.9216 -3.209
H -0.9548 -7.4236 -3.8223
H 2.8011 2.991 1.4665
H 3.6185 2.1247 2.5991
H -1.61 -5.1562 -6.6874
H -2.3391 -6.4894 -5.7452
H -5.8122 -2.4237 2.019
H -4.0762 -2.8523 1.9785
H 3.8156 0.0719 1.119
H 4.469 0.3571 -0.5251
C 4.5952 3.0873 -0.4191
H 5.2625 2.6998 -1.1836
H 4.9737 4.0417 -0.0638
H 3.612 3.236 -0.8572
C 5.8897 1.8054 1.3093
H 6.3383 2.7246 1.6753
H 6.527 1.3807 0.5386
H 5.8267 1.1007 2.1361
C 0.6499 -4.8514 -5.1563
H 1.615 -5.1591 -4.7643
H 0.2481 -4.0706 -4.5139
H 0.7843 -4.4474 -6.1565
C 0.2476 -7.1273 -6.1284
H -0.4206 -7.9854 -6.1585
H 1.2191 -7.4604 -5.7744
H 0.3531 -6.7338 -7.136
C -1.7477 3.2669 -5.8901
H -1.5898 2.1944 -5.9755
H -0.8068 3.7552 -5.644
H -2.0862 3.6474 -6.85
H -4.3541 3.0785 -6.2848
H -4.9508 3.2739 -4.603
C -3.0435 5.0642 -4.7028
H -2.1062 5.5644 -4.4691
H -3.7514 5.2692 -3.9038
H -3.4337 5.4616 -5.6362
C -5.7467 0.132 2.469
H -5.4879 1.1394 2.7901
H -6.4983 -0.2668 3.1456
H -6.1712 0.1689 1.4695
C -4.1323 -1.1131 3.9405
H -3.1982 -1.6679 3.9562
H -4.9114 -1.7108 4.4071
H -3.9982 -0.1982 4.5125
H -2.4611 -3.1566 -6.082
H -4.3388 0.9862 0.5135

