%chk=_2_alde1_3_ami1_1_opt_gas_mp2.chk
%mem=60000mb
%nprocshared=32

#P MP2/aug-cc-pVDZ SP SCF=(YQC,MaxCycle=900) int=(Grid=Superfinegrid)  

_2_alde1_3_ami1_1_opt_gas_mp2

0 1
C -5.8085 -2.2719 0.0221
C -4.7031 -2.5938 0.9194
C -7.0132 -2.963 0.0903
C -8.0562 -2.6504 -0.782
H -7.1656 -3.7535 0.8114
C -7.8922 -1.6378 -1.7254
C -6.6938 -0.9338 -1.7971
H -8.7043 -1.399 -2.399
C -5.6591 -1.2582 -0.9222
C -6.5062 0.1367 -2.7714
H -4.7284 -0.7162 -0.9773
C -9.3199 -3.3909 -0.6995
H -7.3314 0.2966 -3.4868
H -4.9048 -3.3603 1.6863
C -0.2357 1.3183 -0.1046
C -0.5448 0.4775 1.0452
C -1.1406 1.3994 -1.1575
C -0.8674 2.1949 -2.2649
H -2.0613 0.8412 -1.1141
C 0.3242 2.9164 -2.3111
C 1.2304 2.8478 -1.2627
H 0.5566 3.5457 -3.1579
C 0.9516 2.0465 -0.1654
C 2.5313 3.6029 -1.3382
H 1.6631 1.9904 0.6467
C -1.8308 2.2644 -3.3565
H -1.5921 2.9628 -4.1773
C -2.0207 -0.9277 2.2256
C -2.4793 -2.285 1.6272
N -1.6637 -0.0911 1.1313
H -1.1811 -1.108 2.923
C -3.1562 -0.232 3.0119
N -3.5951 -2.0143 0.7875
H -2.72 -2.9812 2.4519
C -1.3756 -2.9304 0.7569
H -3.9686 -0.0404 2.3049
C -3.6701 -1.0973 4.1597
C -0.0959 -3.1789 1.551
C -1.8804 -4.2502 0.1751
O -9.5607 -4.2789 0.0784
C -5.211 1.8791 -3.6815
C -3.8479 1.5829 -4.3637
N -5.4531 0.823 -2.7604
H -5.9944 1.9612 -4.4581
C -5.1792 3.2057 -2.8869
N -2.8667 1.5509 -3.3336
H -3.6506 2.3617 -5.1244
C -3.8457 0.2082 -5.0717
H -4.4161 3.0978 -2.1107
C -4.8369 4.3961 -3.7788
H -4.0208 -0.5507 -4.3036
C -4.9307 0.1138 -6.1413
C 3.7669 5.0724 -2.7085
C 4.5626 3.7641 -2.4268
N 2.4322 4.7826 -2.1968
H 3.6749 5.2133 -3.7958
C 4.43 6.3394 -2.1282
C 5.3434 3.2153 -3.6239
H 5.4835 6.315 -2.4257
C 3.7933 7.5918 -2.731
H 4.6279 3.0148 -4.4312
C 6.3846 4.2101 -4.1314
H 0.2451 0.3833 1.8105
H -10.0782 -3.0615 -1.4391
C -2.6602 1.1044 3.5627
H -1.168 -2.2392 -0.0649
C -6.5324 3.4416 -2.2172
C -2.4789 -0.0437 -5.7068
C 4.3703 6.406 -0.6026
C 6.0295 1.9054 -3.2375
H -1.1145 -4.6999 -0.4525
H -2.7685 -4.0898 -0.4309
H -2.1244 -4.9502 0.9729
H -2.847 -1.4151 4.7976
H -4.1895 -1.9789 3.7954
H -4.37 -0.5256 4.7653
H -1.8324 0.9481 4.2529
H -3.4611 1.61 4.0972
H -2.3241 1.7514 2.7564
H -0.3099 -3.7464 2.4552
H 0.3888 -2.2476 1.8291
H 0.605 -3.7508 0.9468
H 2.7317 7.6385 -2.4956
H 3.9006 7.5936 -3.8136
H 4.2699 8.4871 -2.3377
H 7.0833 4.4648 -3.3371
H 5.92 5.1238 -4.4925
H 6.9477 3.769 -4.951
H 4.8159 5.523 -0.1504
H 3.3435 6.4921 -0.2509
H 4.9166 7.2786 -0.2507
H 5.3105 1.2013 -2.8293
H 6.7898 2.0917 -2.4823
H 6.5084 1.458 -4.1056
H -4.9533 5.3204 -3.217
H -5.5021 4.4337 -4.64
H -3.8108 4.3488 -4.1316
H -4.8139 -0.8113 -6.7017
H -4.855 0.947 -6.8379
H -5.9252 0.114 -5.7042
H -2.4625 -1.0195 -6.1867
H -1.6954 -0.0187 -4.9537
H -2.2636 0.7129 -6.46
H -7.3194 3.5228 -2.9657
H -6.51 4.3647 -1.6428
H -6.7761 2.625 -1.5423
H 2.0086 5.5717 -1.7269
N 3.5722 2.7989 -1.9535
H 5.2632 3.936 -1.6001
H 2.8712 3.8507 -0.3144
H 3.1674 2.3202 -2.7554

