%chk=_2_alde1_3_ami3_1_opt_dcm_pbe.chk
%mem=60000mb
%nprocshared=32

#P PBE1PBE/Def2TZVP SP SCF=(YQC,MaxCycle=900) int=(Grid=Superfinegrid) EmpiricalDispersion=GD3 SCRF=(PCM,Solvent=Dichloromethane)

_2_alde1_3_ami3_1_opt_dcm_pbe

0 1
C -3.6665 -1.3508 -0.6542
C -3.5756 -0.998 0.7541
C -3.1904 -2.5713 -1.1291
C -3.1863 -2.8367 -2.4944
H -2.818 -3.2935 -0.4187
C -3.6213 -1.8621 -3.3943
C -4.1057 -0.644 -2.9332
H -3.5749 -2.0788 -4.452
C -4.1493 -0.4108 -1.5596
C -4.4674 0.4173 -3.8647
H -4.5348 0.5375 -1.2192
C -2.6973 -4.1267 -3.0006
H -4.0668 0.3059 -4.8842
H -4.0432 -0.0412 1.0293
C -0.5244 1.2506 -0.2975
C -0.4612 0.4121 0.8901
C -1.7042 1.9121 -0.6232
C -1.8284 2.5798 -1.8365
H -2.5293 1.8585 0.0693
C -0.7345 2.6392 -2.6996
C 0.465 2.0309 -2.359
H -0.8431 3.1579 -3.6395
C 0.5573 1.3154 -1.1741
C 1.6493 2.1471 -3.293
H 1.4831 0.8102 -0.9438
C -3.1276 3.1046 -2.2208
H -3.8984 3.0637 -1.4351
C -1.3082 -0.4885 2.8653
C -2.7136 -1.1429 2.8917
N -1.3151 0.4817 1.8161
H -0.5585 -1.2796 2.6812
C -1.0395 0.1591 4.224
N -2.9392 -1.6953 1.5921
H -3.4392 -0.3425 3.1204
C -2.7543 -2.2148 3.9755
C -1.101 -0.8914 5.3284
C -2.4555 -1.595 5.3371
O -2.6417 -4.4443 -4.1609
C -5.318 2.5142 -4.4147
C -4.759 3.7774 -3.7114
N -5.1441 1.4205 -3.5122
H -4.7537 2.3593 -5.3518
C -6.7948 2.7394 -4.7393
N -3.3922 3.5057 -3.3881
H -5.3646 3.9379 -2.8012
C -4.8898 4.9754 -4.6459
C -6.9513 3.9505 -5.6536
C -6.354 5.1997 -5.011
C 3.6124 2.6962 -2.2244
C 3.3413 3.7558 -3.3062
N 2.8538 1.5489 -2.702
H 3.133 3.0206 -1.2892
C 5.1011 2.5399 -1.9955
N 1.9289 3.5708 -3.6076
H 3.899 3.4789 -4.2142
C 3.8102 5.1178 -2.8361
C 5.6409 3.9033 -1.5504
C 5.3125 5.0142 -2.5525
H 0.355 -0.3279 0.9009
H 3.3892 1.0652 -3.4167
H 1.4046 1.63 -4.2314
H 1.3649 4.1671 -3.008
H -2.3695 -4.8208 -2.2013
H -8.0096 4.1128 -5.8679
H -6.4439 3.7538 -6.6009
H -6.4376 6.0449 -5.6969
H -6.9169 5.445 -4.1073
H -4.4818 5.8596 -4.1525
H -4.2972 4.788 -5.5426
H -7.1942 1.845 -5.2224
H -7.3422 2.892 -3.8077
H 3.6206 5.8779 -3.5956
H 3.2737 5.4009 -1.9267
H 5.6789 5.9667 -2.1651
H 5.8342 4.8145 -3.4914
H 6.7232 3.8447 -1.4211
H 5.2031 4.1548 -0.5815
H 5.589 2.2264 -2.9218
H 5.3013 1.786 -1.2325
H -2.0181 -2.9843 3.7375
H -3.7406 -2.6827 3.9796
H -1.7838 0.9382 4.3973
H -0.0551 0.632 4.2042
H -0.9229 -0.4168 6.2955
H -0.3117 -1.6294 5.167
H -2.4652 -2.3707 6.1052
H -3.2366 -0.8714 5.5823

