%chk=_2_alde1_3_ami3_2_opt_cfm_mp2.chk
%mem=60000mb
%nprocshared=32

#P MP2/aug-cc-pVDZ SP SCF=(YQC,MaxCycle=900) int=(Grid=Superfinegrid)  SCRF=(PCM,Solvent=Chloroform)

_2_alde1_3_ami3_2_opt_cfm_mp2

0 1
C -3.5553 -1.6797 -0.7664
C -3.8446 -1.2816 0.6026
C -2.7189 -2.7583 -1.0475
C -2.3659 -3.0454 -2.3619
H -2.3457 -3.3516 -0.2267
C -2.8178 -2.2271 -3.3988
C -3.6593 -1.1537 -3.1327
H -2.5007 -2.4498 -4.4076
C -4.0434 -0.9068 -1.8155
C -4.055 -0.2336 -4.1917
H -4.7024 -0.0734 -1.6284
C -1.4918 -4.1872 -2.6655
H -3.4435 -0.2759 -5.1062
H -4.5737 -0.4651 0.7101
C -1.2342 1.6456 0.0213
C -1.2258 0.8695 1.2536
C -2.4458 1.9754 -0.5842
C -2.4751 2.578 -1.8366
H -3.3585 1.7164 -0.0709
C -1.2748 2.9131 -2.4617
C -0.0583 2.6368 -1.8473
H -1.3143 3.3799 -3.434
C -0.0452 1.9797 -0.616
C 1.1908 3.0064 -2.4999
H 0.9106 1.7438 -0.1734
C -3.7538 2.7503 -2.5062
H -4.6387 2.5336 -1.888
C -2.241 -0.1802 3.0711
C -3.4299 -1.1548 2.8712
N -2.2541 0.7309 1.9703
H -1.3064 -0.7692 3.0985
C -2.4193 0.5497 4.4028
N -3.2456 -1.7772 1.597
H -4.353 -0.549 2.8933
C -3.4444 -2.1763 4.0032
H -3.3436 1.1287 4.3676
C -2.4634 -0.4552 5.5498
H -2.5165 -2.7496 3.9725
C -3.5881 -1.467 5.3462
H -2.6064 0.0738 6.4941
H -1.5081 -0.9827 5.6027
H -3.5763 -2.2014 6.1539
H -4.5497 -0.9493 5.3787
O -1.1114 -4.5005 -3.7643
C -5.2302 1.5891 -5.0431
C -5.1471 2.9662 -4.3366
N -4.9962 0.5923 -4.0468
H -4.462 1.5566 -5.8365
C -6.6165 1.4361 -5.6694
N -3.8545 3.0477 -3.7288
H -5.9507 2.992 -3.5789
C -5.3582 4.0744 -5.3628
H -7.3673 1.4689 -4.8781
C -6.8601 2.5511 -6.6815
H -4.564 4.019 -6.1089
C -6.7238 3.9227 -6.0255
H -6.1339 2.465 -7.4931
H -7.8576 2.4426 -7.1119
H -6.8593 4.706 -6.7737
H -7.5052 4.0414 -5.2712
C 4.2898 1.8233 -3.0176
C 3.521 3.1079 -2.655
N 3.5229 1.0948 -4.0184
H 4.4298 1.2478 -2.0844
C 5.6565 2.1756 -3.6035
N 2.3117 2.7372 -1.9883
H 3.3226 3.6612 -3.5901
C 4.3516 3.97 -1.6991
H 5.4978 2.7082 -4.5428
C 6.4698 3.0365 -2.6444
H 4.4857 3.4168 -0.7678
C 5.7065 4.3119 -2.3052
H 7.4321 3.2839 -3.0967
H 6.6637 2.4757 -1.727
H 6.2805 4.9173 -1.6008
H 5.5608 4.9 -3.2141
H -0.2737 0.3686 1.4896
H 2.6071 0.8577 -3.6512
H 1.0915 3.5321 -3.4617
H -1.1936 -4.7674 -1.7697
H -1.5899 1.2469 4.5402
H -4.2735 -2.8696 3.8495
H -6.6821 0.4605 -6.1561
H -5.2837 5.0424 -4.8636
H 6.1959 1.2529 -3.8299
H 3.7944 4.881 -1.4707
H 3.9943 0.2298 -4.2603

