%chk=_2_alde1_4_ami1_1_opt_cfm_mp2.chk
%mem=60000mb
%nprocshared=32

#P MP2/aug-cc-pVDZ SP SCF=(YQC,MaxCycle=900) int=(Grid=Superfinegrid)  SCRF=(PCM,Solvent=Chloroform)

_2_alde1_4_ami1_1_opt_cfm_mp2

0 1
C -4.0235 -2.172 -1.5239
C -4.3522 -2.008 -0.1171
C -3.3291 -3.2963 -1.9734
C -2.9378 -3.3968 -3.2965
H -3.0834 -4.0794 -1.2753
C -3.2221 -2.3614 -4.1764
C -3.8901 -1.2203 -3.7399
H -2.8987 -2.4407 -5.2036
C -4.3172 -1.1488 -2.4165
C -4.0333 -0.0744 -4.6243
H -4.8458 -0.2645 -2.097
C -2.1825 -4.6116 -3.8003
H -3.4337 -0.1164 -5.5483
H -4.9748 -1.1325 0.1252
C -1.2253 0.376 0.0132
C -1.4786 -0.603 1.0616
C -2.2888 0.9912 -0.6385
C -2.0667 1.8392 -1.7174
H -3.2893 0.7682 -0.3046
C -0.7568 2.1222 -2.1021
C 0.3134 1.5675 -1.4172
H -0.5818 2.7965 -2.9254
C 0.0767 0.6732 -0.3829
C 1.723 1.9043 -1.8269
H 0.9108 0.2131 0.1286
C -3.2108 2.375 -2.4387
H -4.1807 2.2483 -1.9347
C -2.8248 -1.706 2.6203
C -4.1193 -2.4289 2.1523
N -2.5807 -0.6636 1.6682
H -2.0006 -2.4399 2.6158
C -2.9327 -1.1029 4.0362
N -3.9035 -2.775 0.7777
H -4.9458 -1.7039 2.2463
C -4.4664 -3.6947 2.9538
H -3.219 -1.9062 4.7225
C -3.9684 0.0157 4.1103
C -1.5637 -0.5761 4.4672
H -4.5912 -3.4165 4.0056
C -3.3811 -4.7614 2.837
C -5.7977 -4.2462 2.4428
H -1.6087 -0.1985 5.4863
H -1.2483 0.234 3.8127
H -0.815 -1.3651 4.4273
H -4.9752 -0.3701 3.9749
H -3.7686 0.7522 3.3367
H -3.9211 0.5024 5.0822
H -5.7018 -4.5299 1.3973
H -6.5836 -3.4981 2.527
H -6.0933 -5.1212 3.0174
H -3.1358 -4.9143 1.7899
H -3.7332 -5.7 3.2594
H -2.4807 -4.4681 3.3707
C 0.0431 -3.9768 -3.6691
C -0.2738 -4.9281 -2.4713
N -1.0502 -4.1854 -4.6177
H 0.9895 -4.2386 -4.149
C 0.1286 -2.4937 -3.2585
N -1.6472 -5.3863 -2.6878
H -0.268 -4.3466 -1.5417
C 0.687 -6.119 -2.2979
H -0.7656 -2.2395 -2.6821
C 0.1697 -1.61 -4.503
C 1.3638 -2.2183 -2.4053
H 0.2234 -6.7722 -1.5475
C 2.0431 -5.6734 -1.7588
C 0.877 -6.9329 -3.5795
H 2.2623 -2.5602 -2.9163
H 1.304 -2.7198 -1.4433
H 1.4621 -1.1485 -2.2367
H 1.1296 -1.7101 -5.0062
H 0.025 -0.5709 -4.2191
H -0.6149 -1.8988 -5.1944
H 1.4241 -7.8469 -3.3586
H 1.4461 -6.3737 -4.3192
H -0.077 -7.2169 -4.022
H 1.9261 -5.1475 -0.8146
H 2.5405 -5.0106 -2.4619
H 2.6817 -6.5383 -1.5923
C -4.7214 2.0879 -5.169
C -4.3268 3.2829 -4.2554
N -4.738 0.9279 -4.3287
H -3.9551 1.9887 -5.9572
C -6.0965 2.261 -5.8473
N -3.1174 2.9088 -3.5776
H -5.1484 3.414 -3.5316
C -4.0989 4.6073 -5.0034
H -6.0837 3.2066 -6.3986
C -7.2406 2.2824 -4.8374
C -6.3092 1.129 -6.8527
H -5.0176 4.8667 -5.5397
C -2.9434 4.5112 -5.9958
C -3.8167 5.7056 -3.9779
H -6.337 0.1697 -6.3402
H -5.5054 1.1065 -7.5862
H -7.2504 1.2657 -7.3806
H -8.1959 2.2716 -5.3578
H -7.2037 3.175 -4.2186
H -7.179 1.4079 -4.1953
H -4.6378 5.792 -3.2689
H -3.688 6.6655 -4.4731
H -2.9089 5.4709 -3.4271
H -2.6944 5.4994 -6.3764
H -3.2011 3.8788 -6.8415
H -2.0734 4.0941 -5.497
C 2.9697 3.3873 -3.1723
C 3.255 1.9023 -3.5392
N 1.8405 3.2994 -2.2551
H 2.6295 3.9306 -4.0654
C 4.2136 4.1299 -2.6419
N 2.1446 1.1375 -2.984
H 4.156 1.5792 -3.0009
C 3.4908 1.6449 -5.0324
H 5.0302 3.9116 -3.3408
C 4.6414 3.6765 -1.2468
C 3.9697 5.6389 -2.6467
H 4.2448 2.3707 -5.3602
C 2.2377 1.8308 -5.889
C 4.0467 0.2351 -5.227
H 4.8502 6.1679 -2.2886
H 3.1306 5.895 -2.0029
H 3.7446 5.9877 -3.6521
H 3.8814 3.9193 -0.506
H 5.5605 4.183 -0.9599
H 4.8223 2.6045 -1.2154
H 5.011 0.1291 -4.7354
H 4.1734 0.0178 -6.2852
H 3.3605 -0.4892 -4.7959
H 2.5162 1.8726 -6.9397
H 1.7172 2.7526 -5.6401
H 1.5527 0.9958 -5.76
H -0.6521 -1.3023 1.2685
H 1.9029 3.9447 -1.4793
H 2.4146 1.6569 -0.9981
H 1.3791 1.139 -3.6522
H -1.6646 -6.3777 -2.8966
H -0.8011 -4.921 -5.2714
H -2.8785 -5.214 -4.3985

