%chk=_2_alde1_4_ami1_2_opt_dcm_mp2.chk
%mem=60000mb
%nprocshared=32

#P MP2/aug-cc-pVDZ SP SCF=(YQC,MaxCycle=900) int=(Grid=Superfinegrid)  SCRF=(PCM,Solvent=Dichloromethane)

_2_alde1_4_ami1_2_opt_dcm_mp2

0 1
C -0.6967 -2.5386 -2.8682
C 0.5874 -2.7339 -2.2084
C -1.8782 -2.5477 -2.1369
C -3.1009 -2.2879 -2.7579
H -1.8734 -2.762 -1.0789
C -3.1254 -1.9701 -4.1115
C -1.9479 -1.953 -4.8572
H -4.0527 -1.728 -4.6083
C -0.745 -2.2647 -4.2342
C -1.936 -1.5266 -6.2474
H 0.1804 -2.2717 -4.7884
C -4.3453 -2.3498 -2.0042
H -0.9586 -1.5952 -6.7483
H 0.57 -2.6834 -1.1087
H -5.2594 -2.1108 -2.5721
C 1.062 0.692 -3.5727
C 2.1794 -0.2379 -3.6304
C 0.2545 0.8677 -4.6921
C -0.9242 1.6058 -4.6101
H 0.502 0.4048 -5.6348
C -1.2646 2.2115 -3.4038
C -0.4439 2.0802 -2.286
H -2.1817 2.7806 -3.3308
C 0.7095 1.3069 -2.3749
C -0.8212 2.6971 -1.021
H 1.3246 1.1673 -1.5012
C -1.8505 1.6442 -5.7314
H -1.7535 3.2846 -1.0273
H -2.8521 2.0431 -5.5021
C 3.7167 -1.6925 -2.6756
C 2.9136 -2.9353 -2.1823
N 2.8111 -0.5863 -2.5962
H 4.0085 -1.8871 -3.7216
C 4.9774 -1.3953 -1.8465
N 1.6529 -2.8997 -2.8601
H 2.7747 -2.8349 -1.0926
C 3.6224 -4.2732 -2.4709
H 5.6037 -2.2935 -1.8335
C 4.6415 -0.9942 -0.4125
C 5.7584 -0.2734 -2.5313
H 4.6411 -4.2098 -2.0753
C 3.6829 -4.5857 -3.9636
C 2.8907 -5.395 -1.7338
H 6.6749 -0.0599 -1.9863
H 5.1537 0.6302 -2.5644
H 6.0218 -0.5507 -3.5502
H 5.5371 -0.6414 0.0941
H 4.2449 -1.8342 0.1514
H 3.9026 -0.1983 -0.421
H 1.8701 -5.4815 -2.101
H 2.8581 -5.1988 -0.6639
H 3.3966 -6.3446 -1.8924
H 4.0932 -5.5813 -4.1178
H 4.3143 -3.8757 -4.491
H 2.6833 -4.5461 -4.3876
C -5.6226 -2.7865 -0.0951
C -5.5486 -1.9269 1.2057
N -4.3745 -2.6788 -0.7881
H -6.4473 -2.4194 -0.7303
C -5.8971 -4.2908 0.1505
N -4.1898 -1.7439 1.6884
H -6.1016 -2.4353 2.0024
C -6.1941 -0.5408 0.9996
H -5.8086 -4.7731 -0.8322
C -7.3173 -4.5205 0.6598
C -4.8739 -4.9379 1.079
H -5.7227 -0.0751 0.1254
C -5.9394 0.3411 2.2215
C -7.702 -0.6327 0.77
H -5.0317 -6.0143 1.1087
H -4.9693 -4.5553 2.0925
H -3.8672 -4.7482 0.7149
H -8.0474 -4.0809 -0.0161
H -7.4572 -4.0844 1.6456
H -7.5147 -5.5879 0.7304
H -7.952 -1.1744 -0.1384
H -8.1231 0.367 0.6878
H -8.1787 -1.1359 1.6086
H -6.4429 -0.0754 3.0906
H -6.3216 1.3446 2.0477
H -4.8781 0.3951 2.4359
C -2.7725 -0.4488 -8.1185
C -2.5731 1.0781 -7.8725
N -2.9481 -1.0423 -6.8246
H -1.8491 -0.8208 -8.593
C -3.9728 -0.7904 -9.0163
N -1.5574 1.1896 -6.8698
H -3.5305 1.4875 -7.506
C -2.1534 1.856 -9.1343
H -3.8413 -0.2828 -9.9774
C -5.2981 -0.3585 -8.3948
C -3.9802 -2.2987 -9.2669
H -2.8997 1.6682 -9.9127
C -0.7775 1.435 -9.6429
C -2.1575 3.3522 -8.8193
H -3.0457 -2.6194 -9.7229
H -4.7974 -2.5701 -9.9313
H -4.1042 -2.8292 -8.3255
H -5.3583 -0.7285 -7.3754
H -6.1285 -0.7647 -8.9681
H -5.3949 0.724 -8.3826
H -3.1355 3.6705 -8.4631
H -1.9141 3.9269 -9.71
H -1.4203 3.5754 -8.051
H -0.4593 2.0983 -10.4442
H -0.7933 0.4204 -10.0319
H -0.0555 1.4895 -8.8328
C 0.6092 4.07 1.7061
C -0.5257 3.1182 1.2635
N 0.6192 5.1796 0.7563
H 1.5477 3.4896 1.6667
C 0.4465 4.6204 3.1357
N -0.1211 2.547 0.0155
H -1.4431 3.7221 1.1476
C -0.8213 1.9563 2.2376
H 0.3992 3.768 3.8198
C -0.8245 5.453 3.2787
C 1.6654 5.4553 3.5346
H -1.119 2.388 3.1976
C 0.3941 1.0563 2.4407
C -1.9973 1.1348 1.7088
H 2.5884 4.9117 3.3406
H 1.6246 5.6879 4.5965
H 1.6883 6.3942 2.9871
H -0.8546 6.2054 2.4956
H -0.8426 5.9473 4.2474
H -1.7113 4.8305 3.1967
H -2.273 0.3636 2.424
H -1.7311 0.6547 0.769
H -2.8642 1.7699 1.5371
H 0.7563 0.7059 1.4782
H 0.12 0.1965 3.0484
H 1.1981 1.587 2.9434
H 2.3825 -0.6788 -4.6184
H -3.6398 -1.2957 0.9615
H -3.7646 -2.6473 1.8592
H 0.6758 4.8148 -0.1888
H 1.438 5.7578 0.9075

