%chk=_2_alde1_3_ami4_1_opt_cfm_mp2.chk
%mem=60000mb
%nprocshared=32

#P MP2/aug-cc-pVDZ SP SCF=(YQC,MaxCycle=900) int=(Grid=Superfinegrid)  SCRF=(PCM,Solvent=Chloroform)

_2_alde1_3_ami4_1_opt_cfm_mp2

0 1
C -3.608 -1.0119 -0.305
C -2.9955 -0.6589 0.9691
C -4.1073 -2.2908 -0.5333
C -4.6058 -2.6397 -1.7873
H -4.1019 -3.0166 0.2653
C -4.5751 -1.7144 -2.8269
C -4.0771 -0.4317 -2.6117
H -4.9267 -1.9724 -3.8144
C -3.6173 -0.0821 -1.3434
C -3.9495 0.5155 -3.7106
H -3.2281 0.9126 -1.1722
C -5.1404 -3.9918 -2.0144
H -3.6769 1.5428 -3.4274
H -2.7553 0.406 1.1062
C -0.1309 0.0927 -0.7468
C -0.2478 -0.8598 0.3468
C -0.5678 -0.2654 -2.0185
C -0.5863 0.6726 -3.0475
H -0.9294 -1.2688 -2.1991
C -0.1179 1.9624 -2.8044
C 0.3508 2.3197 -1.5483
H -0.1165 2.6775 -3.6118
C 0.3281 1.3909 -0.5207
C 0.8264 3.7281 -1.3109
H 0.6554 1.6515 0.4738
C -1.1857 0.322 -4.3258
H -1.4035 -0.7468 -4.4752
C -0.4425 -1.4313 2.5843
C -1.9295 -1.1767 2.9606
N -0.0994 -0.5113 1.554
H -0.3417 -2.4826 2.2771
N -2.7206 -1.5379 1.8351
H -2.0352 -0.1187 3.242
O -5.1941 -4.8673 -1.191
C -3.7578 1.0672 -5.9533
C -2.2658 0.8234 -6.3145
N -4.1021 0.1576 -4.9139
H -4.371 0.8486 -6.829
N -1.4845 1.2002 -5.186
H -2.002 1.4657 -7.1564
C 0.3465 5.9522 -1.5161
C 1.4961 5.652 -2.5055
N -0.2805 4.6671 -1.2469
H -0.3759 6.669 -1.9014
N 1.6545 4.2025 -2.4275
H 2.4046 6.2015 -2.2397
H -0.5115 -1.8888 0.0584
H 1.3578 3.7837 -0.3425
H 2.6182 3.9086 -2.3438
H -5.5072 -4.1536 -3.048
H 0.178 -1.2288 3.4588
H -2.194 -1.8237 3.7984
H -3.8707 2.1207 -5.6587
H -2.1468 -0.2355 -6.5889
H 0.7499 6.3312 -0.5722
H 1.2185 5.9197 -3.5309
H -0.9317 4.4431 -1.9952

