%chk=_2_alde1_4_ami3_2_opt_cfm_mp2.chk
%mem=60000mb
%nprocshared=32

#P MP2/aug-cc-pVDZ SP SCF=(YQC,MaxCycle=900) int=(Grid=Superfinegrid)  SCRF=(PCM,Solvent=Chloroform)

_2_alde1_4_ami3_2_opt_cfm_mp2

0 1
C -0.8526 -3.3789 -2.0479
C -0.0457 -3.468 -0.8381
C -2.2183 -3.6336 -2.0152
C -3.0015 -3.4572 -3.1571
H -2.7001 -3.9795 -1.1133
C -2.4147 -2.9708 -4.3204
C -1.046 -2.7102 -4.3668
H -3.0045 -2.7821 -5.2045
C -0.2697 -2.9481 -3.2385
C -0.4238 -2.1187 -5.5407
H 0.7935 -2.768 -3.2479
C -4.4257 -3.7618 -3.1302
H 0.6759 -2.0829 -5.5206
H -0.6088 -3.4586 0.1086
H -4.9717 -3.5796 -4.0685
C 1.3337 0.3175 -1.764
C 2.1839 -0.7841 -1.3413
C 0.9662 0.4125 -3.1012
C 0.0385 1.3644 -3.5207
H 1.3596 -0.2724 -3.8355
C -0.47 2.2684 -2.5962
C -0.0633 2.2264 -1.2618
H -1.1857 3.0206 -2.8914
C 0.8167 1.2321 -0.848
C -0.563 3.2016 -0.299
H 1.1137 1.1464 0.1863
C -0.4519 1.3422 -4.8925
H -0.2168 3.0504 0.7303
H -1.4123 1.8548 -5.0607
C 3.0333 -2.3232 0.1588
C 1.9699 -3.4341 0.3384
N 2.3364 -1.1067 -0.1305
N 1.2141 -3.4994 -0.873
C -6.3883 -4.5136 -2.1064
C -7.0811 -3.6464 -1.04
N -4.9901 -4.213 -2.0965
N -6.9972 -2.2525 -1.4541
C -0.3802 -0.8894 -7.4973
C -0.4339 0.6082 -7.1078
N -1.0886 -1.6184 -6.4898
N 0.157 0.732 -5.8122
C -1.2828 6.516 -0.3498
C -1.8262 5.163 0.1963
N -1.5163 6.7094 -1.7659
N -1.3298 4.1347 -0.6631
H 2.644 -1.3609 -2.1576
H -6.0254 -1.9825 -1.5667
H -7.4078 -1.6517 -0.7473
H -1.1162 5.9317 -2.2803
H -2.5144 6.7138 -1.9533
C -1.9048 7.6708 0.4339
C -8.5532 -4.0375 -0.9166
C 0.3434 1.4197 -8.1461
C 3.861 -2.1987 1.434
H -6.5709 -3.8368 -0.0782
C -8.7108 -5.5177 -0.5901
H -9.0476 -3.8073 -1.8619
H -9.0203 -3.429 -0.1387
C -8.0349 -6.368 -1.6599
H -9.771 -5.7702 -0.5244
H -8.2547 -5.7271 0.3805
C -6.5614 -5.9993 -1.7736
H -8.5271 -6.2009 -2.6206
H -8.1293 -7.4274 -1.4129
H -6.0776 -6.5941 -2.5514
H -6.0498 -6.2013 -0.8307
H -6.8507 -4.2896 -3.0843
H -0.1952 6.5203 -0.2035
C -1.6314 7.5404 1.9277
H -2.9836 7.6774 0.2577
H -1.4981 8.607 0.0496
C -2.162 6.2096 2.4512
H -2.1033 8.3665 2.4631
H -0.5551 7.5968 2.1058
C -1.5267 5.0484 1.6937
H -3.2472 6.1755 2.3266
H -1.9455 6.1148 3.5175
H -2.9162 5.1661 0.0454
H -1.9131 4.0985 2.0731
H -0.445 5.0674 1.8498
H -1.4893 0.9351 -7.1049
C -0.2636 1.2221 -9.5313
H 1.3857 1.0963 -8.138
H 0.316 2.4752 -7.8659
C -0.2724 -0.255 -9.9156
H 0.3071 1.7942 -10.2656
H -1.288 1.6021 -9.5329
C -1.015 -1.0819 -8.8709
H 0.6856 -1.1771 -7.5269
H -2.0619 -0.7785 -8.8191
H -0.9849 -2.1411 -9.1333
H 0.7566 -0.6137 -9.9941
H -0.7462 -0.3815 -10.8911
H 3.6778 -2.627 -0.6849
C 4.5523 -3.5224 1.7451
H 3.2008 -1.9122 2.2543
H 4.5999 -1.4056 1.3048
C 3.5313 -4.6493 1.8763
H 5.1248 -3.4311 2.6702
H 5.252 -3.761 0.9405
C 2.6798 -4.7608 0.6158
H 2.8824 -4.4512 2.7327
H 4.0439 -5.5964 2.0564
H 1.9309 -5.5477 0.7309
H 3.3036 -5.013 -0.2435
H 1.3305 -3.1755 1.2017

