%chk=_2_alde1_3_ami4_2_opt_cfm_pbe.chk
%mem=60000mb
%nprocshared=32

#P PBE1PBE/Def2TZVP SP SCF=(YQC,MaxCycle=900) int=(Grid=Superfinegrid) EmpiricalDispersion=GD3 SCRF=(PCM,Solvent=Chloroform)

_2_alde1_3_ami4_2_opt_cfm_pbe

0 1
C -3.4555 -1.8187 -0.8461
C -3.7161 -1.4199 0.5292
C -2.5655 -2.8489 -1.1451
C -2.2559 -3.1434 -2.4685
H -2.1198 -3.4007 -0.3317
C -2.8082 -2.3806 -3.4988
C -3.6998 -1.3533 -3.2144
H -2.5277 -2.6092 -4.5171
C -4.0357 -1.0983 -1.8852
C -4.2061 -0.492 -4.2755
H -4.7361 -0.3029 -1.6834
C -1.3277 -4.2369 -2.792
H -3.6811 -0.5683 -5.2397
H -4.4986 -0.6586 0.659
C -1.2791 1.5784 -0.2182
C -1.2051 0.8644 1.049
C -2.519 1.8551 -0.7929
C -2.6059 2.4054 -2.0664
H -3.4071 1.6002 -0.2363
C -1.436 2.7344 -2.7498
C -0.1923 2.5106 -2.1694
H -1.5209 3.1595 -3.7383
C -0.1213 1.9113 -0.9108
C 1.022 2.8793 -2.8835
H 0.8533 1.7126 -0.4916
C -3.9113 2.5372 -2.6938
H -4.7708 2.3427 -2.035
C -2.1416 -0.1536 2.9281
C -3.2249 -1.2473 2.7787
N -2.2165 0.6946 1.7826
H -1.1515 -0.6224 3.0422
N -3.046 -1.8656 1.5018
H -4.2128 -0.773 2.8764
O -0.9884 -4.5548 -3.9025
C -5.5047 1.2645 -5.0918
C -5.3682 2.6782 -4.4801
N -5.1523 0.3183 -4.0832
H -4.8689 1.1828 -5.9872
N -4.0557 2.7899 -3.9223
H -6.155 2.8062 -3.7213
C 3.3361 3.116 -3.0889
C 4.0547 4.2271 -2.2871
N 2.167 2.7093 -2.3824
H 3.9999 2.247 -3.1537
N 4.4533 3.846 -0.9521
H 3.3845 5.0873 -2.2032
H -0.2181 0.4473 1.3022
H 0.8757 3.3124 -3.8851
H 3.6345 3.5514 -0.43
H -0.9462 -4.7731 -1.9007
H -2.369 0.4376 3.8194
H -3.0889 -1.9973 3.5598
H -6.5502 1.1076 -5.3705
H -5.4842 3.4228 -5.2699
H 3.1181 3.4803 -4.107
H 4.9457 4.5351 -2.8409
H 5.09 3.0561 -0.9887

