%chk=_2_alde1_4_ami4_2_opt_gas_mp2.chk
%mem=60000mb
%nprocshared=32

#P MP2/aug-cc-pVDZ SP SCF=(YQC,MaxCycle=900) int=(Grid=Superfinegrid)  

_2_alde1_4_ami4_2_opt_gas_mp2

0 1
C -4.0063 -1.3784 -1.2704
C -4.7277 -0.9629 -0.0779
C -3.2907 -2.5744 -1.305
C -2.5271 -2.9086 -2.4182
H -3.3398 -3.2274 -0.4469
C -2.4462 -2.0146 -3.4872
C -3.1562 -0.8203 -3.4672
H -1.8202 -2.2745 -4.3272
C -3.9565 -0.523 -2.3649
C -2.9986 0.1551 -4.5377
H -4.5077 0.4041 -2.3709
C -1.8036 -4.1715 -2.4517
H -2.1417 -0.0111 -5.2089
H -5.3335 -0.0516 -0.1891
H -1.8981 -4.8011 -1.5531
C -1.6898 1.4545 0.5487
C -2.2865 0.7075 1.647
C -2.4972 2.0057 -0.443
C -1.9369 2.6006 -1.5696
H -3.567 1.9279 -0.3291
C -0.552 2.6976 -1.6731
C 0.2687 2.1951 -0.6663
H -0.1098 3.1607 -2.5398
C -0.3065 1.5533 0.4291
C 1.7183 2.3115 -0.7591
H 0.3285 1.1309 1.1963
C -2.8138 3.022 -2.6516
H 2.2903 1.861 0.068
H -3.8892 3.0042 -2.4181
C -4.0884 -0.1145 2.8779
C -5.1941 -0.9426 2.1831
N -3.5196 0.7604 1.9044
N -4.6195 -1.5617 1.0286
C -0.4497 -5.7809 -3.4662
C -1.0394 -6.6493 -4.6025
N -1.1123 -4.5189 -3.4481
N -0.9327 -6.0701 -5.9217
C -3.4747 2.1696 -5.6115
C -3.3431 3.5069 -4.8465
N -3.7658 1.1482 -4.658
N -2.3858 3.3216 -3.8004
C 4.1832 2.284 -3.0732
C 3.7009 2.9799 -1.7951
N 4.019 0.8461 -2.9327
N 2.278 2.8999 -1.7231
H -1.5962 0.0625 2.2139
H -1.4017 -5.1701 -5.9299
H 0.0418 -5.9061 -6.1541
H 3.0365 0.629 -2.7941
H 4.3235 0.3729 -3.7764
H -4.3355 3.7843 -4.4594
H -2.9788 4.2762 -5.53
H -2.5487 1.9702 -6.1736
H -4.3142 2.2502 -6.3075
H -2.0999 -6.8207 -4.3977
H -0.5266 -7.615 -4.6049
H -0.5323 -6.3236 -2.5093
H 0.6081 -5.5941 -3.6819
H -6.0222 -0.2661 1.9235
H -5.5439 -1.7188 2.8665
H -3.3423 -0.791 3.3245
H -4.5509 0.488 3.6645
H 5.2486 2.4874 -3.2104
H 3.6304 2.7094 -3.9255
H 3.9658 4.0398 -1.854
H 4.1991 2.5237 -0.9248

