%chk=_2_alde1_4_ami2_1_opt_dcm_mp2.chk
%mem=60000mb
%nprocshared=32

#P MP2/aug-cc-pVDZ SP SCF=(YQC,MaxCycle=900) int=(Grid=Superfinegrid)  SCRF=(PCM,Solvent=Dichloromethane)

_2_alde1_4_ami2_1_opt_dcm_mp2

0 1
C -2.9133 -2.6504 -1.4643
C -2.1875 -2.66 -0.1981
C -2.8342 -3.7178 -2.3563
C -3.5387 -3.689 -3.5513
H -2.2517 -4.5953 -2.1159
C -4.2914 -2.5706 -3.8788
C -4.3491 -1.4805 -3.013
H -4.8199 -2.5421 -4.8216
C -3.6716 -1.5365 -1.7988
C -5.0798 -0.2709 -3.3697
H -3.7212 -0.6991 -1.1232
C -3.4386 -4.8457 -4.5107
H -5.7062 -0.3194 -4.2768
H -1.2513 -3.2438 -0.1747
C -0.3481 1.8532 0.1214
C -0.5525 1.0292 1.3094
C -1.377 2.0419 -0.7976
C -1.1611 2.7921 -1.9469
H -2.3393 1.5893 -0.6252
C 0.0917 3.3609 -2.1707
C 1.1148 3.2008 -1.2492
H 0.2828 3.9391 -3.0632
C 0.892 2.4469 -0.1069
C 2.4429 3.8787 -1.4639
H 1.6936 2.3159 0.6068
C -2.2227 2.951 -2.9387
H -1.8639 3.1091 -3.9663
C -1.9313 -0.4934 2.5465
C -1.8913 -1.9485 2.011
N -1.6058 0.3553 1.4377
N -2.624 -2.0215 0.7935
C -2.0656 -6.0411 -5.8935
C -2.4409 -6.9919 -4.723
N -2.3118 -4.6893 -5.4178
N -3.1838 -6.1098 -3.8197
C -5.597 1.9913 -2.9912
C -4.5333 2.9937 -3.5238
N -4.9637 0.7635 -2.6618
N -3.433 2.9018 -2.6035
C 3.5364 5.8866 -1.5234
C 3.5169 5.3601 -2.9847
N 2.472 5.1854 -0.825
N 2.7047 4.1451 -2.8792
H 0.2725 1.0508 2.0365
H 1.5825 5.646 -0.9982
H 3.2466 3.2743 -0.9996
H 3.1131 3.352 -3.3554
H -4.0261 -6.5326 -3.4532
H -1.5135 -4.3617 -4.8802
H -4.3519 -4.8883 -5.136
H 3.405 6.965 -1.4587
H 4.4834 5.6184 -1.0437
H -1.0349 -6.1599 -6.2223
H -2.7288 -6.2203 -6.7459
H -2.3807 -2.5926 2.7495
H -0.8443 -2.281 1.8972
H -6.4024 1.8864 -3.7383
H -6.0049 2.3935 -2.061
C 2.8002 6.3437 -3.9162
H 1.8096 6.5699 -3.529
H 2.6878 5.904 -4.9043
H 3.3663 7.2678 -4.0044
C 4.9292 5.0812 -3.4994
H 5.5238 5.9917 -3.4794
H 4.8925 4.7146 -4.5236
H 5.4207 4.3337 -2.8784
C -3.2773 -8.1759 -5.2104
H -2.7221 -8.7521 -5.9471
H -4.201 -7.8264 -5.6691
H -3.5275 -8.8299 -4.377
C -1.1905 -7.4944 -3.9935
H -0.6035 -8.1397 -4.6424
H -1.4781 -8.0542 -3.1068
H -0.5773 -6.6527 -3.6809
C -3.3783 -0.1457 2.9154
H -3.4449 0.8982 3.2121
H -3.7248 -0.7714 3.734
H -4.0051 -0.3081 2.0446
C -1.0224 -0.3836 3.7775
H -0.0029 -0.685 3.5436
H -1.3965 -1.0317 4.566
H -1.0122 0.6405 4.1451
C -5.1013 4.4159 -3.4334
H -6.0371 4.4848 -3.9827
H -4.3918 5.1259 -3.8533
H -5.277 4.6777 -2.3935
C -4.2042 2.655 -4.9841
H -5.1159 2.6605 -5.5767
H -3.7483 1.6682 -5.0463
H -3.522 3.387 -5.4107

