%chk=_2_alde1_4_ami3_1_opt_gas_mp2.chk
%mem=60000mb
%nprocshared=32

#P MP2/aug-cc-pVDZ SP SCF=(YQC,MaxCycle=900) int=(Grid=Superfinegrid)  

_2_alde1_4_ami3_1_opt_gas_mp2

0 1
C -3.8474 -1.9079 -0.377
C -4.1136 -1.5038 0.9934
C -3.1019 -3.0495 -0.669
C -2.7684 -3.3565 -1.9805
H -2.7795 -3.682 0.1435
C -3.1453 -2.4981 -3.0027
C -3.8927 -1.3537 -2.7286
H -2.8584 -2.7363 -4.0159
C -4.2633 -1.0821 -1.4156
C -4.1894 -0.3951 -3.7829
H -4.8468 -0.1959 -1.2222
C -1.9447 -4.5931 -2.2594
H -3.5757 -0.4903 -4.6937
H -4.7759 -0.6311 1.1016
C -1.2498 1.1561 0.4825
C -1.3372 0.3796 1.7105
C -2.4088 1.6099 -0.1387
C -2.352 2.2115 -1.3911
H -3.3521 1.448 0.3584
C -1.1122 2.4115 -1.9971
C 0.0544 2.0069 -1.3641
H -1.0779 2.8748 -2.9709
C -0.0187 1.3621 -0.1383
C 1.3803 2.224 -2.0573
H 0.895 1.0308 0.3319
C -3.5936 2.5226 -2.0795
H -4.5054 2.3965 -1.4758
C -2.4685 -0.5622 3.5156
C -3.7312 -1.4271 3.2697
N -2.3733 0.3607 2.429
N -3.5713 -2.0524 1.9928
C -0.2711 -4.3886 -3.8446
C 0.3515 -4.8742 -2.5241
N -1.6721 -4.7548 -3.6974
N -0.6543 -4.5254 -1.5326
C -5.158 1.5429 -4.6382
C -4.9323 2.8996 -3.9233
N -5.0448 0.5212 -3.6458
N -3.6455 2.8387 -3.3007
C 2.6505 0.8133 -3.4057
C 2.9155 0.4975 -1.9233
N 1.3904 1.5394 -3.3723
N 2.5063 1.7224 -1.252
H -0.4528 -0.2358 1.9437
H 0.6106 0.8885 -3.4188
H 1.5078 3.3012 -2.2349
H 3.2709 2.3898 -1.2674
H -0.5041 -3.5758 -1.2014
H -1.8002 -5.7242 -3.97
H -2.4964 -5.4692 -1.8901
C 4.3362 0.0075 -1.7338
C 1.7499 -4.3134 -2.3683
C -2.6173 0.1632 4.853
C -5.0103 4.0295 -4.9447
H -1.5902 -1.2323 3.5564
C -3.8657 -2.4561 4.3873
H -4.5989 -0.7432 3.2773
C -3.9827 -1.7539 5.7366
H -2.9915 -3.1087 4.3713
H -4.748 -3.0718 4.2019
C -2.7794 -0.8478 5.9837
H -4.0574 -2.4963 6.5337
H -4.8954 -1.1535 5.7518
H -1.8758 -1.4583 6.0523
H -2.9 -0.3204 6.9323
H -3.4864 0.8212 4.8027
H -1.7345 0.7839 5.022
H 0.4059 -5.9733 -2.5463
C 2.5788 -4.8068 -3.5589
H 2.2005 -4.6433 -1.4307
H 1.7082 -3.2207 -2.362
C 1.9455 -4.4413 -4.9051
H 2.6732 -5.8931 -3.4918
H 3.5839 -4.3833 -3.508
C 0.5011 -4.9388 -5.026
H 2.5475 -4.8658 -5.7109
H 1.9528 -3.3555 -5.0231
H 0.4767 -6.0314 -5.008
H 0.0641 -4.6037 -5.968
H -0.2325 -3.2891 -3.8656
H 2.2145 -0.2878 -1.6027
C 4.5059 -1.2558 -2.5846
H 4.5355 -0.2149 -0.6842
H 5.0401 0.7776 -2.0592
C 4.1494 -1.0216 -4.056
H 3.8629 -2.04 -2.1791
H 5.5377 -1.6063 -2.5177
C 2.7378 -0.4523 -4.2334
H 4.2371 -1.9636 -4.6012
H 4.8655 -0.3198 -4.4897
H 2.5433 -0.2439 -5.2867
H 1.9921 -1.1714 -3.8834
H 3.4157 1.5236 -3.7542
H -5.7372 3.0091 -3.1744
C -6.545 1.5459 -5.2809
H -4.3886 1.4314 -5.4242
C -6.6543 2.6856 -6.2889
H -7.2966 1.6567 -4.4975
H -6.7116 0.5855 -5.7738
C -6.3767 4.0309 -5.6231
H -7.6526 2.689 -6.7314
H -5.932 2.525 -7.0929
H -7.149 4.2297 -4.8761
H -6.4183 4.8285 -6.3676
H -4.2183 3.8917 -5.6825
H -4.8365 4.9812 -4.439

