%chk=_3_alde1_6_ami4_1_opt_cfm_mp2.chk
%mem=60000mb
%nprocshared=32

#P MP2/aug-cc-pVDZ SP SCF=(YQC,MaxCycle=900) int=(Grid=Superfinegrid)  SCRF=(PCM,Solvent=Chloroform)

_3_alde1_6_ami4_1_opt_cfm_mp2

0 1
C -2.3418 -1.9341 -0.8754
C -2.7603 -1.9838 -2.3245
C -1.4172 -2.8524 -0.3922
C -1.047 -2.8492 0.9515
H -0.9999 -3.585 -1.0688
C -1.592 -1.8936 1.8067
C -2.5205 -0.9762 1.334
H -1.2903 -1.9019 2.8426
C -2.8962 -1.0083 -0.0097
C -3.0834 0.027 2.2265
H -3.6167 -0.2949 -0.3726
C -0.1164 -3.8461 1.4597
H -2.51 0.2258 3.1457
H 0.3571 -4.4909 0.7022
C 3.3856 -1.2909 -1.0848
C 3.0954 -1.9259 -2.4203
C 3.8411 0.0142 -0.9797
C 4.0854 0.5801 0.2717
H 4.0077 0.6022 -1.8712
C 3.8208 -0.1587 1.4224
C 3.3521 -1.4628 1.3255
H 3.9983 0.3032 2.3815
C 3.1552 -2.0262 0.0657
C 3.0054 -2.2336 2.5113
H 2.8202 -3.0489 0.0044
C 4.5978 1.9378 0.3564
H 2.8817 -1.6611 3.4435
H 4.695 2.4661 -0.6039
C 0.2454 2.5898 -1.7394
C 0.5621 2.202 -3.1601
C -1.0618 2.4716 -1.2832
C -1.3991 2.8564 0.0122
H -1.8229 2.0789 -1.9417
C -0.405 3.331 0.8652
C 0.9048 3.4462 0.42
H -0.6833 3.6212 1.8668
C 1.2215 3.0788 -0.8893
C 1.9488 3.9154 1.32
H 2.2407 3.1705 -1.2251
C -2.7814 2.7699 0.4548
H 1.7263 3.8275 2.3953
H -3.481 2.3216 -0.2654
C -2.903 -0.3432 -4.0141
C -2.0856 -1.5626 -4.4725
N -3.4881 -0.7672 -2.7433
H -2.2151 0.4877 -3.8217
N -1.6213 -2.1377 -3.2197
H -2.7282 -2.2951 -4.9733
C 1.4914 -3.1737 -3.5039
C 2.537 -4.1643 -2.9639
N 1.6574 -1.9985 -2.6586
H 0.4659 -3.5343 -3.4734
N 3.6088 -3.309 -2.4632
H 2.8876 -4.8696 -3.7173
C 1.0408 0.5611 -4.6672
C 2.2663 1.5034 -4.6196
N 0.3203 0.7942 -3.4252
H 1.3112 -0.4872 -4.7577
N 1.9689 2.4122 -3.5165
H 2.411 2.0169 -5.5766
C 1.0691 -4.9469 3.1309
C 2.3461 -4.2073 3.5758
N 0.1098 -3.9832 2.6933
H 0.6509 -5.4822 3.9871
N 2.8289 -3.4797 2.4493
H 3.0956 -4.9519 3.8593
C -4.6037 1.694 2.796
C -4.5195 2.996 1.9698
N -4.1594 0.6278 1.9605
H -5.6491 1.5184 3.0624
N -3.1585 3.1991 1.5817
H -4.832 3.8364 2.5933
C 5.3126 3.8528 1.4407
C 4.0828 4.7087 1.812
N 4.9211 2.4774 1.4514
H 6.0934 4.0012 2.1898
N 3.0389 4.3837 0.895
H 4.3437 5.7634 1.6886
H 1.192 -2.1647 -1.7682
H 3.5385 -1.3165 -3.2263
H 4.445 -3.37 -3.0279
H 2.1644 3.38 -3.7383
H 0.7542 0.2374 -2.6907
H -0.1145 2.7702 -3.8338
H -0.8595 -1.5546 -2.8793
H -4.4773 -0.962 -2.8363
H -3.4021 -2.8754 -2.4584
H 1.7406 -2.892 -4.5328
H -3.6621 -0.0303 -4.7309
H 3.1826 0.951 -4.385
H 2.1247 -3.5615 4.4405
H -5.1916 2.8962 1.1044
H 3.8007 4.5197 2.8603
H -1.2494 -1.3079 -5.118
H 0.3855 0.8404 -5.4993
H 1.3388 -5.6614 2.3371
H -3.9984 1.8016 3.7106
H 5.6723 4.1756 0.4518
H 2.1204 -4.7319 -2.1228

