%chk=_3_alde1_5_ami1_1_opt_cfm_mp2.chk
%mem=60000mb
%nprocshared=32

#P MP2/aug-cc-pVDZ SP SCF=(YQC,MaxCycle=900) int=(Grid=Superfinegrid)  SCRF=(PCM,Solvent=Chloroform)

_3_alde1_5_ami1_1_opt_cfm_mp2

0 1
C -2.9936 -1.9118 -0.4933
C -3.1751 -1.5398 0.9008
C -2.2452 -3.0216 -0.8826
C -2.0713 -3.3167 -2.2316
H -1.8073 -3.649 -0.1213
C -2.5974 -2.4575 -3.1965
C -3.3426 -1.3459 -2.8233
H -2.4196 -2.6866 -4.2362
C -3.5636 -1.1017 -1.4699
C -3.8373 -0.4059 -3.821
H -4.1636 -0.2473 -1.1997
C -1.3315 -4.5056 -2.6289
H -3.3642 -0.4738 -4.8132
H -3.9162 -0.7437 1.0682
H -0.9492 -5.1243 -1.8041
C 1.7441 -2.3367 0.2375
C 1.1364 -2.7972 1.5446
C 2.4797 -1.165 0.1591
C 2.9977 -0.7286 -1.06
H 2.6567 -0.5946 1.0593
C 2.7568 -1.4731 -2.2117
C 2.0399 -2.6608 -2.1383
H 3.1522 -1.1151 -3.1499
C 1.5395 -3.085 -0.9085
C 1.7686 -3.449 -3.3324
H 0.9905 -4.0095 -0.8583
C 3.7515 0.513 -1.1104
H 1.8368 -2.9118 -4.2921
H 3.881 1.0261 -0.1444
C -0.7616 1.4573 0.2956
C -0.6602 0.6623 1.5125
C -2.0126 1.7552 -0.2418
C -2.1278 2.3506 -1.4927
H -2.8892 1.4751 0.3211
C -0.972 2.6895 -2.1943
C 0.2824 2.4661 -1.6388
H -1.0756 3.1341 -3.1724
C 0.3815 1.8377 -0.3983
C 1.4858 2.8271 -2.3787
H 1.3632 1.6376 0.0002
C -3.4464 2.5236 -2.0826
H 1.3623 2.9189 -3.4697
H -4.294 2.3112 -1.4135
C -1.554 -0.4491 3.365
C -2.7139 -1.4637 3.1641
N -1.6526 0.4637 2.2646
H -0.5969 -0.996 3.3314
C -1.6195 0.3209 4.6997
N -2.5224 -2.0383 1.8594
H -3.6484 -0.8782 3.1912
C -2.8027 -2.5785 4.2193
H -1.6189 -0.4133 5.5122
C -2.871 1.1873 4.8058
C -0.3669 1.1859 4.8424
H -2.9286 -2.1133 5.2023
C -1.5573 -3.4582 4.2343
C -4.0397 -3.43 3.9318
H -0.3462 1.9504 4.0688
H 0.5342 0.5819 4.7526
H -0.3567 1.6764 5.8132
H -3.7675 0.577 4.8765
H -2.9496 1.8263 3.9304
H -2.8161 1.8124 5.6945
H -4.9384 -2.8167 3.9334
H -4.1518 -4.2054 4.6863
H -3.9471 -3.9017 2.9561
H -1.71 -4.3163 4.8862
H -0.6957 -2.9054 4.6001
H -1.3585 -3.8111 3.2258
C 2.9984 -3.0979 2.8611
C 2.5717 -4.4823 2.265
N 1.8516 -2.2135 2.6731
H 3.8049 -2.6963 2.2349
C 3.4987 -3.1478 4.3109
N 1.2575 -4.2486 1.6665
H 2.4957 -5.24 3.0524
C 3.557 -5.0044 1.2055
H 4.2703 -3.9241 4.3519
C 2.4107 -3.5088 5.3246
C 4.1335 -1.8095 4.6871
H 3.6606 -4.2392 0.43
C 3.0002 -6.271 0.5599
C 4.9262 -5.2907 1.8164
H 4.4751 -1.826 5.7197
H 3.4094 -1.0065 4.571
H 4.9851 -1.5958 4.0455
H 1.7371 -2.6701 5.4943
H 2.8681 -3.7568 6.2798
H 1.8272 -4.3675 4.9987
H 4.8386 -6.0212 2.6191
H 5.3811 -4.3887 2.2176
H 5.5923 -5.6966 1.0585
H 2.9022 -7.0636 1.2996
H 3.6651 -6.6155 -0.2285
H 2.0232 -6.0699 0.1323
C -0.3333 -5.9495 -4.1507
C 1.0925 -5.3993 -4.4316
N -1.1475 -4.8109 -3.839
H -0.2499 -6.6168 -3.2767
C -0.9631 -6.7247 -5.3199
N 1.4571 -4.6668 -3.2577
H 1.0413 -4.7359 -5.3126
C 2.1385 -6.499 -4.7051
H -0.3227 -7.5824 -5.5493
C -1.1135 -5.8582 -6.5669
C -2.3293 -7.252 -4.8803
H 1.7982 -7.0817 -5.567
C 2.323 -7.4258 -3.5067
C 3.4712 -5.8452 -5.0712
H -2.9886 -6.4197 -4.6449
H -2.2345 -7.8778 -3.995
H -2.7819 -7.8436 -5.6729
H -0.1456 -5.6224 -7.0016
H -1.617 -4.9319 -6.3058
H -1.7031 -6.3813 -7.3167
H 4.2045 -6.605 -5.332
H 3.8522 -5.2705 -4.2297
H 3.3538 -5.1765 -5.9219
H 3.1733 -8.084 -3.6729
H 1.4439 -8.0446 -3.3478
H 2.5024 -6.835 -2.6128
C -5.1016 1.4313 -4.5214
C -4.9433 2.8146 -3.8292
N -4.7185 0.4521 -3.5485
H -4.4261 1.4015 -5.393
C -6.5381 1.1485 -5.0094
N -3.6136 2.8408 -3.2917
H -5.6895 2.8553 -3.0177
C -5.1476 4.0209 -4.7607
H -6.839 1.9748 -5.6613
C -7.5292 1.0327 -3.8545
C -6.5481 -0.1366 -5.8372
H -6.1567 3.9656 -5.1821
C -4.1274 4.0494 -5.8954
C -5.0447 5.3016 -3.932
H -5.8537 -0.0653 -6.6721
H -7.5436 -0.3197 -6.2353
H -6.2621 -0.9862 -5.2205
H -7.6602 1.9861 -3.3499
H -7.171 0.3017 -3.1345
H -8.4993 0.7129 -4.2289
H -5.7739 5.2986 -3.1242
H -5.2263 6.1741 -4.5554
H -4.0505 5.3824 -3.4984
H -3.1275 3.935 -5.4868
H -4.1863 4.997 -6.4263
H -4.3091 3.2507 -6.6098
C 4.8434 2.2782 -2.1451
C 3.7616 3.3052 -2.5778
N 4.218 0.9877 -2.1821
H 5.1383 2.5353 -1.1134
C 6.0975 2.2677 -3.0358
N 2.5909 3.0124 -1.8055
H 3.5633 3.1675 -3.6543
C 4.1822 4.7722 -2.3457
H 6.5228 3.2768 -3.0478
C 5.7829 1.8364 -4.4656
C 7.1271 1.3198 -2.4203
H 5.1555 4.9214 -2.824
C 4.2951 5.1142 -0.8623
C 3.1733 5.7023 -3.0192
H 6.726 0.3093 -2.39
H 7.3739 1.624 -1.4049
H 8.0414 1.3156 -3.0093
H 6.7059 1.679 -5.0194
H 5.2014 2.5917 -4.9878
H 5.2184 0.9087 -4.4475
H 3.0953 5.485 -4.0827
H 3.4817 6.739 -2.9041
H 2.1902 5.5837 -2.568
H 3.3681 4.8618 -0.3544
H 4.4869 6.1781 -0.7406
H 5.1091 4.5689 -0.3924
H 0.3209 0.201 1.6959
H 0.5242 -4.6088 2.2674
H 0.0805 -2.497 1.5499
H 1.2589 -2.255 3.497

