%chk=_3_alde1_4_ami1_1_opt_gas_pbe.chk
%mem=60000mb
%nprocshared=32

#P PBE1PBE/Def2TZVP SP SCF=(YQC,MaxCycle=900) int=(Grid=Superfinegrid) EmpiricalDispersion=GD3 

_3_alde1_4_ami1_1_opt_gas_pbe

0 1
C -3.5566 -1.7611 -0.8335
C -3.724 -1.4111 0.5693
C -2.8403 -2.8934 -1.2165
C -2.6275 -3.1775 -2.5613
H -2.4555 -3.5419 -0.4443
C -3.0905 -2.2876 -3.5309
C -3.8089 -1.1559 -3.1645
H -2.8845 -2.5056 -4.5678
C -4.0652 -0.9185 -1.8148
C -4.2275 -0.1836 -4.1656
H -4.6407 -0.0451 -1.5522
C -1.9077 -4.384 -2.9373
H -3.7342 -0.2704 -5.1467
H -4.4117 -0.576 0.7687
H -1.5974 -5.0277 -2.0997
C 1.3972 -2.395 0.1117
C 0.8464 -2.802 1.4087
C 2.1787 -1.2426 0.0221
C 2.6743 -0.8172 -1.205
H 2.3962 -0.6923 0.9271
C 2.3597 -1.5469 -2.351
C 1.6028 -2.711 -2.2731
H 2.7343 -1.1911 -3.2988
C 1.1303 -3.1371 -1.0337
C 1.2857 -3.4627 -3.482
H 0.5435 -4.0409 -0.9844
C 3.4862 0.3886 -1.2879
H 1.3598 -2.9003 -4.4257
H 0.3009 -3.7635 1.3855
H 3.6555 0.9154 -0.3377
C -1.0512 1.4309 -0.0341
C -1.0007 0.6185 1.1753
C -2.2796 1.7843 -0.5905
C -2.3481 2.422 -1.8237
H -3.176 1.5187 -0.0527
C -1.1671 2.7424 -2.4917
C 0.0668 2.4571 -1.9185
H -1.2348 3.2238 -3.4555
C 0.1174 1.7917 -0.6938
C 1.2979 2.8077 -2.6145
H 1.084 1.5544 -0.2784
C -3.6489 2.6749 -2.4247
H 1.1932 3.0323 -3.6879
H -4.5131 2.4959 -1.7678
C -1.9726 -0.4938 2.9903
C -3.1774 -1.463 2.8223
N -2.0278 0.4015 1.8721
H -1.0426 -1.082 2.9784
C -2.0084 0.3144 4.3052
N -3.0845 -1.9881 1.4906
H -4.0919 -0.856 2.9347
C -3.2134 -2.6196 3.8344
H -2.1013 -0.3973 5.1311
C -3.1763 1.296 4.3557
C -0.6852 1.0603 4.4731
H -3.1588 -2.1985 4.8432
C -2.0572 -3.5942 3.6351
C -4.5465 -3.3558 3.6948
H -0.6595 1.5695 5.4341
H -0.5658 1.8034 3.687
H 0.1522 0.3675 4.4264
H -3.1018 1.9149 5.2474
H -4.1292 0.7744 4.3857
H -3.1576 1.9388 3.4793
H -4.6418 -3.7628 2.6904
H -5.3823 -2.6822 3.8744
H -4.6056 -4.1739 4.4091
H -2.1457 -4.4245 4.3328
H -1.0997 -3.1093 3.7994
H -2.083 -3.9812 2.6205
O 0.9419 -2.1677 2.4308
C -0.8763 -5.8538 -4.4111
C 0.5779 -5.3609 -4.6398
N -1.6568 -4.6821 -4.1365
H -0.8547 -6.521 -3.5327
C -1.4909 -6.6083 -5.6023
N 0.9478 -4.6744 -3.4391
H 0.5759 -4.6715 -5.5018
C 1.5855 -6.4943 -4.9193
H -0.8816 -7.4963 -5.7988
C -1.5475 -5.7447 -6.859
C -2.8972 -7.0696 -5.2189
H 1.2472 -7.03 -5.8116
C 1.6919 -7.4726 -3.7532
C 2.9558 -5.8879 -5.2226
H -2.8698 -7.6899 -4.3252
H -3.3399 -7.6488 -6.0259
H -3.529 -6.2069 -5.0201
H -2.0206 -4.7952 -6.6255
H -2.1268 -6.2467 -7.6308
H -0.5522 -5.555 -7.2525
H 3.6607 -6.67 -5.495
H 3.3401 -5.3655 -4.3491
H 2.8926 -5.1815 -6.0481
H 1.8926 -6.9286 -2.8342
H 2.5039 -8.1744 -3.9308
H 0.7742 -8.0416 -3.6315
C -5.3601 1.7317 -4.8795
C -5.1119 3.0946 -4.1732
N -5.0644 0.7219 -3.9079
H -4.6744 1.6587 -5.7408
C -6.8053 1.5578 -5.3915
N -3.7863 3.0281 -3.6277
H -5.8581 3.177 -3.3652
C -5.2292 4.3208 -5.0935
H -7.0308 2.4017 -6.0511
C -7.822 1.5225 -4.2538
C -6.8986 0.2736 -6.2158
H -6.239 4.3406 -5.5162
C -4.2078 4.2875 -6.2269
C -5.0379 5.5834 -4.2528
H -6.6916 -0.5928 -5.591
H -6.1842 0.2872 -7.0367
H -7.8971 0.1666 -6.6333
H -7.8922 2.4865 -3.7572
H -7.5307 0.7723 -3.5235
H -8.8061 1.2713 -4.6435
H -4.0414 5.59 -3.817
H -5.767 5.6242 -3.4459
H -5.1565 6.4722 -4.8682
H -4.4446 3.5102 -6.9489
H -3.2192 4.0986 -5.8184
H -4.1983 5.2417 -6.749
C 4.6522 2.0524 -2.4092
C 3.6054 3.1576 -2.7344
N 3.9598 0.7992 -2.3823
H 5.069 2.2869 -1.4158
C 5.7988 1.9894 -3.4335
N 2.407 2.8448 -2.0197
H 3.4282 3.1579 -3.8236
C 4.0966 4.5636 -2.3217
H 6.1608 3.0083 -3.6082
C 5.3468 1.3888 -4.7619
C 6.9429 1.1594 -2.8525
H 5.1335 4.6681 -2.6581
C 4.0427 4.7712 -0.8102
C 3.2519 5.6266 -3.0221
H 6.5963 0.1506 -2.6388
H 7.3125 1.6012 -1.9292
H 7.7679 1.1008 -3.5586
H 4.571 1.992 -5.2255
H 4.9538 0.3902 -4.5963
H 6.1882 1.33 -5.4486
H 3.596 6.6214 -2.7488
H 2.2081 5.5322 -2.7286
H 3.3194 5.5263 -4.1036
H 4.3856 5.7732 -0.5618
H 4.6759 4.0574 -0.2904
H 3.0234 4.648 -0.4539
H -0.0238 0.1715 1.4071

