%chk=_3_alde1_5_ami4_2_opt_dcm_pbe.chk
%mem=60000mb
%nprocshared=32

#P PBE1PBE/Def2TZVP SP SCF=(YQC,MaxCycle=900) int=(Grid=Superfinegrid) EmpiricalDispersion=GD3 SCRF=(PCM,Solvent=Dichloromethane)

_3_alde1_5_ami4_2_opt_dcm_pbe

0 1
C -4.594 -0.9946 -1.2207
C -5.3871 0.1015 -0.6852
C -4.3326 -2.1402 -0.4699
C -3.4922 -3.1306 -0.9661
H -4.791 -2.2328 0.5032
C -2.8709 -2.9498 -2.203
C -3.1376 -1.8223 -2.9692
H -2.1913 -3.714 -2.5477
C -4.0249 -0.8634 -2.4823
C -2.4459 -1.6022 -4.2329
H -4.2295 -0.0002 -3.0956
C -3.2415 -4.3406 -0.1948
H -1.5431 -2.2117 -4.392
H -5.6773 0.8722 -1.4142
H -3.8342 -4.4469 0.7276
C 3.3644 -3.3035 -0.2926
C 4.3739 -3.9566 -1.115
C 3.5359 -1.9873 0.1325
C 2.5686 -1.3627 0.9139
H 4.4287 -1.448 -0.1381
C 1.4167 -2.0648 1.263
C 1.2389 -3.3849 0.8598
H 0.658 -1.5828 1.865
C 2.2178 -3.9985 0.0808
C 0.0476 -4.1124 1.2685
H 2.0607 -5.0226 -0.2214
C 2.756 -0.001 1.3927
H -0.7137 -3.5162 1.7991
H 4.1605 -4.9994 -1.3983
H 1.9411 0.4021 2.0145
C -2.009 2.3786 -0.409
C -2.9928 2.3684 0.6658
C -2.4283 2.2422 -1.7317
C -1.5051 2.1044 -2.7613
H -3.4884 2.2142 -1.9282
C -0.1432 2.1519 -2.467
C 0.2902 2.3558 -1.1614
H 0.5622 2.0384 -3.276
C -0.6483 2.447 -0.1327
C 1.7149 2.4697 -0.8798
H -0.2912 2.578 0.8775
C -1.9804 1.8486 -4.1123
H 2.3893 2.2017 -1.7071
H -3.0625 1.9777 -4.2623
C -5.1805 2.3643 1.4904
C -6.2883 1.4115 0.9901
N -4.2239 2.5221 0.443
N -5.6729 0.2 0.5408
C 6.5086 -3.2219 -3.6326
C 6.3835 -4.0085 -2.3065
N 6.8902 -1.8373 -3.476
N 5.4268 -3.3621 -1.472
C -2.1257 -6.3633 0.204
C -1.2988 -5.9962 1.4534
N -2.4016 -5.1981 -0.5834
N -0.0949 -5.3466 1.0541
C -2.0633 -0.4592 -6.2323
C -1.8184 1.0651 -6.2786
N -2.8406 -0.7463 -5.0699
N -1.2188 1.46 -5.041
C 3.9111 2.0045 1.6124
C 3.5439 2.9752 0.4746
N 3.7966 0.6636 1.1349
N 2.1411 2.885 0.2322
H 6.2122 -1.3712 -2.8815
H 7.7908 -1.7738 -3.0116
H -2.5946 2.1806 1.6754
H 5.5434 -3.2462 -4.1463
H 7.2499 -3.7182 -4.265
H 7.3482 -3.974 -1.7883
H 6.1283 -5.0602 -2.5224
H -4.7324 1.9701 2.416
H -5.6349 3.3379 1.6986
H -6.8405 1.9186 0.1847
H -6.9625 1.1793 1.817
H 4.9524 2.1713 1.8976
H 3.2483 2.2093 2.4672
H 4.1494 2.7392 -0.4147
H 3.7593 3.9943 0.8081
H -1.5459 -7.0442 -0.4223
H -3.0449 -6.8616 0.5414
H -2.784 1.5641 -6.4497
H -1.1287 1.2936 -7.0935
H -2.6413 -0.7415 -7.1171
H -1.1008 -0.9945 -6.2395
H -1.0307 -6.9191 1.9747
H -1.9162 -5.3654 2.1173

