%chk=_3_alde1_6_ami3_2_opt_dcm_mp2.chk
%mem=60000mb
%nprocshared=32

#P MP2/aug-cc-pVDZ SP SCF=(YQC,MaxCycle=900) int=(Grid=Superfinegrid)  SCRF=(PCM,Solvent=Dichloromethane)

_3_alde1_6_ami3_2_opt_dcm_mp2

0 1
C -3.208 -1.4901 -0.6122
C -3.5659 -1.2814 0.7848
C -2.5621 -2.6642 -1.0004
C -2.1844 -2.8644 -2.3226
H -2.3644 -3.4104 -0.246
C -2.4483 -1.8705 -3.265
C -3.0984 -0.6989 -2.8951
H -2.142 -2.0396 -4.286
C -3.477 -0.5147 -1.5651
C -3.3621 0.3323 -3.8887
H -3.9776 0.4033 -1.2977
C -1.5118 -4.0967 -2.7054
H -2.8264 0.2194 -4.8444
H -3.9602 -0.2847 1.0374
H -1.2525 -4.7718 -1.8751
C 3.1292 -2.3972 -0.3215
C 2.9802 -2.8361 1.06
C 3.8603 -1.2455 -0.6141
C 3.985 -0.7955 -1.9229
H 4.325 -0.7153 0.2033
C 3.3603 -1.5034 -2.9496
C 2.6355 -2.6573 -2.6749
H 3.462 -1.1363 -3.9594
C 2.524 -3.1 -1.3566
C 1.9849 -3.3835 -3.7563
H 1.9542 -3.9961 -1.1639
C 4.753 0.4078 -2.2054
H 1.918 -2.8473 -4.7159
H 2.2879 -3.6762 1.2264
H 5.1168 0.9552 -1.3221
C 0.7189 3.5764 -0.2189
C 1.0166 3.6525 1.2055
C -0.603 3.6382 -0.6608
C -0.9067 3.535 -2.0128
H -1.3809 3.7681 0.0762
C 0.127 3.3566 -2.9321
C 1.4496 3.3007 -2.508
H -0.1272 3.2716 -3.9775
C 1.7396 3.4125 -1.148
C 2.5179 3.1085 -3.4785
H 2.7726 3.3636 -0.839
C -2.2927 3.6033 -2.451
H 2.1957 2.7958 -4.4842
H 2.0665 3.4782 1.4884
H -3.0424 3.6354 -1.6452
C -2.4078 -2.1995 3.8239
C -3.7014 -1.9494 3.0254
N -1.414 -1.209 3.4331
N -3.4101 -2.1885 1.6469
C -4.7933 -2.9217 3.4816
C 2.9016 -1.4296 4.1369
C 3.392 -2.6655 3.359
N 1.5996 -1.0331 3.6176
C 2.7687 -1.7614 5.6224
N 3.5969 -2.2678 2.0017
C -0.4739 2.8089 4.114
C 0.4046 3.889 3.4539
N -0.0693 1.5018 3.6145
C -0.2962 2.8405 5.6313
N 0.1139 3.8846 2.0548
C -0.5481 -5.5872 -4.209
C 0.8697 -5.206 -4.6869
N -1.2493 -4.3788 -3.906
N 1.5327 -4.5501 -3.6042
C -4.3499 2.2951 -4.6648
C -3.9991 3.6583 -4.0306
N -4.1538 1.2882 -3.67
N -2.6162 3.6325 -3.6693
C 5.7213 2.0084 -3.5883
C 4.7442 3.055 -4.1659
N 4.9943 0.7952 -3.3808
N 3.7304 3.2919 -3.1871
C 5.4989 4.3559 -4.4497
H -0.0711 1.5156 2.5988
H -0.7403 0.7867 3.892
H -0.4983 -1.4473 3.812
H -1.3155 -1.2137 2.4221
H 1.6611 -0.9208 2.6099
H 1.3226 -0.1265 3.9907
C -1.279 -6.3454 -5.3171
C -4.2486 4.7768 -5.0424
H -1.523 3.0498 3.8667
C -0.6312 4.2158 6.1964
H 0.7392 2.5831 5.8621
H -0.9367 2.0777 6.0784
C 0.2422 5.2824 5.5438
H -0.4801 4.2192 7.2778
H -1.6825 4.4414 6.0034
C 0.0625 5.2658 4.0306
H 1.2899 5.0911 5.787
H -0.0179 6.2693 5.932
H 0.7026 6.0167 3.5623
H -0.972 5.499 3.7723
H 1.4648 3.6503 3.6556
H -4.0281 -0.9086 3.2032
C -5.0539 -2.7842 4.9768
H -4.4685 -3.9372 3.2484
H -5.7059 -2.7228 2.9155
C -3.7736 -3.0348 5.7671
H -5.8267 -3.4936 5.2799
H -5.4199 -1.7772 5.1903
C -2.6805 -2.0703 5.3218
H -3.4412 -4.062 5.6007
H -3.9637 -2.9122 6.8352
H -1.7552 -2.2637 5.868
H -2.9814 -1.0418 5.5297
H -2.0851 -3.2322 3.602
H 3.6651 -0.6421 4.0082
C 4.7201 -3.1565 3.9427
H 2.6289 -3.4604 3.4446
C 4.5753 -3.4818 5.4245
H 5.4682 -2.3745 3.8007
H 5.0477 -4.039 3.3887
C 4.0913 -2.2577 6.1951
H 5.5356 -3.8185 5.8204
H 3.8568 -4.2953 5.5489
H 2.4326 -0.87 6.1558
H 2.0 -2.5279 5.737
H 3.9683 -2.5056 7.2513
H 4.8392 -1.4648 6.121
H 4.3218 2.6559 -5.1061
C 6.6437 4.1132 -5.4263
H 5.8828 4.7474 -3.506
H 4.7987 5.0884 -4.8571
C 7.6029 3.0624 -4.8761
H 7.1769 5.049 -5.6053
H 6.2388 3.7695 -6.3811
C 6.8603 1.7649 -4.5785
H 8.0614 3.4363 -3.9576
H 8.4013 2.872 -5.5961
H 7.5423 1.0233 -4.1577
H 6.4391 1.3506 -5.496
H 6.1218 2.4116 -2.6405
H -4.6493 3.7937 -3.1472
C -5.7024 4.7747 -5.5006
H -3.5828 4.6285 -5.8942
H -3.9956 5.7338 -4.5815
C -6.0697 3.4244 -6.108
H -5.8578 5.5686 -6.2337
H -6.3521 4.9756 -4.6455
C -5.8144 2.3013 -5.1095
H -5.4691 3.2553 -7.0049
H -7.1211 3.4205 -6.4026
H -6.052 1.333 -5.5555
H -6.4446 2.4282 -4.2276
H -3.6947 2.1393 -5.5411
H -0.4388 -6.2304 -3.317
C -0.5077 -7.5996 -5.7114
H -1.3886 -5.6822 -6.1767
H -2.2792 -6.6076 -4.9661
C 0.9039 -7.2392 -6.1637
H -1.0358 -8.1188 -6.5137
H -0.4518 -8.275 -4.8545
C 1.6375 -6.4738 -5.0685
H 0.8494 -6.6214 -7.0631
H 1.4598 -8.1455 -6.4123
H 2.6381 -6.1928 -5.4042
H 1.7445 -7.096 -4.1783
H 0.7747 -4.5475 -5.5694

