%chk=_3_alde1_4_ami3_1_opt_gas_pbe.chk
%mem=60000mb
%nprocshared=32

#P PBE1PBE/Def2TZVP SP SCF=(YQC,MaxCycle=900) int=(Grid=Superfinegrid) EmpiricalDispersion=GD3 

_3_alde1_4_ami3_1_opt_gas_pbe

0 1
C -5.3021 -1.3946 -0.5137
C -5.554 -0.917 0.8357
C -4.6503 -2.6017 -0.7621
C -4.3466 -2.9816 -2.0651
H -4.384 -3.2261 0.0769
C -4.6634 -2.1307 -3.1258
C -5.2911 -0.9137 -2.8905
H -4.3881 -2.4348 -4.1242
C -5.6337 -0.5717 -1.582
C -5.4604 0.0712 -3.9509
H -6.1347 0.37 -1.4189
C -3.6588 -4.2401 -2.3113
H -5.1005 -0.2267 -4.9447
H -6.1126 0.0299 0.8945
H -3.3337 -4.7901 -1.4145
C 1.9642 -2.3664 -1.3295
C 2.6494 -2.8841 -0.136
C 2.2227 -1.0694 -1.7704
C 1.5605 -0.5586 -2.882
H 2.9437 -0.4577 -1.2509
C 0.6345 -1.3599 -3.547
C 0.3992 -2.6729 -3.1443
H 0.1123 -0.9651 -4.4078
C 1.0647 -3.1687 -2.0255
C -0.4911 -3.5252 -3.9214
H 0.8695 -4.1852 -1.7199
C 1.8416 0.786 -3.3693
H -1.0148 -3.0348 -4.7561
H 2.4046 -3.9411 0.0911
H 1.1062 1.2031 -4.0742
C -2.1162 1.5195 0.5934
C -2.4628 0.7669 1.7926
C -3.0934 1.8628 -0.3375
C -2.745 2.4612 -1.5463
H -4.1186 1.6051 -0.123
C -1.4144 2.7901 -1.7875
C -0.4314 2.4882 -0.849
H -1.137 3.264 -2.7147
C -0.7852 1.8224 0.3224
C 0.9661 2.8033 -1.1019
H -0.0179 1.5476 1.0334
C -3.767 2.6053 -2.5779
H 1.6875 2.3684 -0.3924
H -4.7934 2.4292 -2.2395
C -3.91 -0.0912 3.4011
C -5.2537 -0.8014 3.1178
N -3.6211 0.7624 2.2886
N -5.1138 -1.4896 1.8708
O 3.4044 -2.258 0.5619
C -2.7409 -5.8941 -3.6787
C -1.4653 -5.5688 -4.4873
N -3.4481 -4.6695 -3.4779
N -0.6125 -4.7561 -3.6776
C -5.8542 2.3409 -4.5469
C -4.382 2.7242 -4.8697
N -5.8995 1.2204 -3.6587
N -3.456 2.7864 -3.7863
C 3.0931 2.7445 -3.4892
C 2.7229 3.7027 -2.3262
N 2.8815 1.4112 -3.0263
N 1.3299 3.5253 -2.0703
H -1.6399 0.1718 2.2219
C 4.561 2.9351 -3.8665
C -0.724 -6.8595 -4.8391
C -5.571 -1.759 4.2618
C -4.365 4.0431 -5.6486
H -3.9727 1.9397 -5.5248
C -5.1504 3.9041 -6.9487
H -3.329 4.316 -5.8532
H -4.8032 4.8262 -5.026
C -6.5827 3.4536 -6.6726
H -4.6575 3.1705 -7.5912
H -5.1582 4.8592 -7.4774
C -6.5993 2.1547 -5.8735
H -7.1041 4.2295 -6.1072
H -7.1155 3.3122 -7.6152
H -6.1279 1.3573 -6.4524
H -7.6279 1.8536 -5.662
H -6.3201 3.1729 -3.9995
H -1.7816 -5.0436 -5.406
C -1.6197 -7.8107 -5.623
H -0.3955 -7.33 -3.9109
H 0.1656 -6.6072 -5.4198
C -2.8762 -8.1349 -4.8222
H -1.0719 -8.7276 -5.8487
H -1.9029 -7.3465 -6.5705
C -3.6271 -6.8554 -4.4749
H -2.5969 -8.654 -3.9025
H -3.5273 -8.7964 -5.397
H -4.5162 -7.083 -3.883
H -3.9514 -6.3495 -5.3859
H -2.4379 -6.361 -2.724
H -6.0294 -0.0171 3.0562
C -5.6736 -0.9879 5.5742
H -4.7823 -2.5107 4.3218
H -6.5102 -2.2733 4.0494
C -4.3853 -0.2188 5.8558
H -6.5076 -0.2847 5.5137
H -5.8781 -1.6796 6.3938
C -4.04 0.7118 4.6973
H -3.5668 -0.9272 6.0038
H -4.4937 0.3638 6.773
H -3.0976 1.2287 4.893
H -4.8179 1.4666 4.5698
H -3.1253 -0.8577 3.5309
H 2.4384 2.9937 -4.343
C 4.8369 4.3805 -4.2639
H 4.8035 2.2608 -4.6903
H 5.1765 2.6533 -3.0108
C 4.4654 5.3269 -3.1268
H 4.2498 4.6315 -5.1505
H 5.8926 4.4959 -4.5168
C 3.0024 5.1459 -2.7393
H 4.6399 6.3614 -3.4291
H 5.0984 5.1188 -2.2611
H 2.744 5.8053 -1.9084
H 2.3535 5.3963 -3.58
H 3.3435 3.4231 -1.4562

