%chk=_3_alde1_6_ami2_2_opt_cfm_pbe.chk
%mem=60000mb
%nprocshared=32

#P PBE1PBE/Def2TZVP SP SCF=(YQC,MaxCycle=900) int=(Grid=Superfinegrid) EmpiricalDispersion=GD3 SCRF=(PCM,Solvent=Chloroform)

_3_alde1_6_ami2_2_opt_cfm_pbe

0 1
C -5.5631 -0.5077 2.1037
C -6.616 -1.2385 2.7939
C -4.5745 -1.1862 1.3966
C -3.5588 -0.4897 0.746
H -4.5967 -2.2622 1.3449
C -3.538 0.8986 0.8094
C -4.5304 1.5941 1.4994
H -2.7624 1.469 0.3202
C -5.5388 0.8857 2.1445
C -4.5126 3.05 1.5157
H -6.3099 1.4207 2.6828
C -2.5395 -1.1962 -0.0242
H -5.3795 3.5473 1.9813
H -7.3487 -0.6258 3.3445
H -1.7527 -0.5698 -0.4561
C 4.7997 -0.9326 -0.0913
C 6.1807 -1.3731 -0.2227
C 4.4873 0.1505 0.7214
C 3.166 0.5739 0.868
H 5.257 0.6822 1.2602
C 2.1534 -0.0936 0.1879
C 2.4504 -1.189 -0.6246
H 1.1243 0.2184 0.2826
C 3.7726 -1.5984 -0.76
C 1.4044 -1.9351 -1.3061
H 4.0288 -2.4413 -1.3839
C 2.8585 1.7249 1.7048
H 1.748 -2.8292 -1.8507
H 6.9262 -0.7864 0.3365
H 1.7946 1.9899 1.7858
C 1.2267 2.2052 -2.9724
C 1.5662 1.3832 -4.1236
C -0.0762 2.6652 -2.7803
C -0.3737 3.5366 -1.7379
H -0.8387 2.3483 -3.4759
C 0.6395 3.929 -0.8673
C 1.9374 3.4553 -1.0268
H 0.4142 4.6054 -0.0596
C 2.225 2.5949 -2.0835
C 2.9842 3.8237 -0.0812
H 3.2344 2.2284 -2.2174
C -1.7315 4.0451 -1.5539
H 3.9788 3.4195 -0.3097
H 2.6364 1.1476 -4.2413
H -2.5073 3.5256 -2.13
C -7.0326 -4.1826 4.4866
C -7.6908 -3.1994 3.4729
N -6.0641 -5.0543 3.8464
N -6.6796 -2.4974 2.7611
C 7.965 -4.2534 -0.4263
C 7.8491 -2.8086 -0.9998
N 7.0341 -5.1683 -1.0623
N 6.4977 -2.3686 -0.9303
C 0.5526 -1.2091 -5.9967
C 1.0765 0.2542 -6.109
N -0.842 -1.2654 -5.5933
C 1.3788 -1.957 -4.9497
N 0.6999 1.0134 -4.9637
C -1.6643 -3.2157 -0.9276
C -0.7791 -2.4152 -1.9271
N -2.6048 -2.4454 -0.1722
N 0.1881 -1.5953 -1.2785
C -0.7862 -3.9691 0.0803
C -3.5205 5.1036 0.9697
C -3.2271 5.568 -0.4823
N -3.5479 3.6844 1.0122
N -1.9363 5.0229 -0.7889
C -3.073 7.0929 -0.4957
C 3.4431 3.5747 2.9732
C 3.6548 4.7718 1.9829
N 3.7704 2.3645 2.3067
N 2.7202 4.5415 0.924
C 3.2351 6.069 2.6778
H -0.9535 -0.7703 -4.7144
H -1.4223 -0.7954 -6.2802
H -6.5139 -5.612 3.128
H -5.3534 -4.4898 3.3927
H 7.2156 -5.2192 -2.0593
H 6.0877 -4.8241 -0.9403
H 1.3352 -1.4359 -3.9953
H 2.4178 -2.0318 -5.2616
H 0.9746 -2.9574 -4.8214
H 2.167 0.2343 -6.269
H 0.5975 0.7279 -6.9727
H 8.5457 -2.1413 -0.4653
H 8.1284 -2.8394 -2.0589
C 7.6576 -4.2343 1.0723
H 8.3803 -3.6213 1.605
H 7.6967 -5.248 1.4605
H 6.6612 -3.8347 1.2488
H -1.4387 -1.7643 -2.5092
H -0.3116 -3.1458 -2.6054
C -2.4952 -4.2215 -1.7365
H -3.0649 -3.7057 -2.5057
H -3.1897 -4.7267 -1.0714
H -1.8529 -4.9596 -2.2094
H -0.0964 -4.6291 -0.4403
H -1.4163 -4.5602 0.7393
H -0.2166 -3.2643 0.6823
C -8.1225 -5.0504 5.1172
C -6.304 -3.3843 5.5695
H -4.4531 5.5699 1.3307
H -2.6859 5.434 1.5954
C -4.3833 5.1486 -1.3986
H -4.1485 5.3861 -2.4344
H -5.2846 5.6869 -1.1152
H -4.5786 4.0818 -1.3118
H -2.2107 7.3797 0.0993
H -3.962 7.5728 -0.0942
H -2.9174 7.4377 -1.5151
H 3.7799 6.2021 3.6088
H 2.1693 6.0457 2.8861
H 3.439 6.9141 2.025
C 5.1312 4.8378 1.5761
H 5.2547 5.5244 0.7404
H 5.4978 3.8551 1.2929
H 5.7239 5.1954 2.4139
H 2.3987 3.6056 3.3161
H 4.1228 3.7035 3.8174
H -5.8115 -4.0703 6.2526
H -7.0032 -2.7668 6.1281
H -5.5496 -2.7425 5.1196
H -8.2518 -3.7919 2.7413
H -8.3917 -2.53 4.0005
C 9.3854 -4.7676 -0.6638
C 0.6897 -1.8924 -7.3578
H -8.6495 -5.6186 4.3535
H -8.8424 -4.4365 5.6522
H -7.6671 -5.7497 5.8127
H 1.7278 -1.903 -7.6798
H 0.0981 -1.3732 -8.1089
H 0.3303 -2.9151 -7.2846
H 10.1124 -4.1388 -0.1564
H 9.6168 -4.7787 -1.7269
H 9.4675 -5.7819 -0.2835

