%chk=_3_alde1_5_ami3_2_opt_gas_pbe.chk
%mem=60000mb
%nprocshared=32

#P PBE1PBE/Def2TZVP SP SCF=(YQC,MaxCycle=900) int=(Grid=Superfinegrid) EmpiricalDispersion=GD3 

_3_alde1_5_ami3_2_opt_gas_pbe

0 1
C -3.3192 -1.4255 -0.146
C -3.3564 -1.1076 1.272
C -2.5731 -2.4936 -0.6411
C -2.492 -2.7238 -2.0107
H -2.0589 -3.1312 0.0618
C -3.1191 -1.844 -2.8936
C -3.8664 -0.775 -2.414
H -3.0129 -2.0216 -3.9529
C -3.9863 -0.5927 -1.0375
C -4.4386 0.2077 -3.3247
H -4.5811 0.2349 -0.6845
C -1.7324 -3.8594 -2.5106
H -4.0123 0.2154 -4.3404
H -4.0515 -0.2998 1.5473
H -1.2664 -4.4917 -1.7401
C 2.0145 -2.0023 0.2643
C 1.7556 -2.6109 1.5636
C 2.6454 -0.7629 0.1638
C 2.9003 -0.1917 -1.0779
H 2.9384 -0.259 1.073
C 2.4923 -0.8577 -2.2332
C 1.8652 -2.095 -2.1495
H 2.6861 -0.3928 -3.1876
C 1.6381 -2.6653 -0.8978
C 1.4148 -2.7776 -3.3546
H 1.1551 -3.6293 -0.8551
C 3.5561 1.1043 -1.1539
H 1.3266 -2.1496 -4.2549
H 1.28 -3.5971 1.5208
H 3.7243 1.604 -0.1869
C -0.9369 1.9432 0.5275
C -0.712 1.0674 1.6704
C -2.2373 2.2615 0.1409
C -2.4828 2.9321 -1.0524
H -3.0502 1.9333 0.7693
C -1.4077 3.327 -1.8469
C -0.1027 3.0806 -1.4372
H -1.6145 3.829 -2.7797
C 0.1264 2.3752 -0.2567
C 1.0246 3.4638 -2.2789
H 1.145 2.1536 0.0214
C -3.8562 3.1067 -1.4967
H 0.8128 3.5242 -3.3586
H -4.6252 2.8251 -0.7613
C -1.402 -0.14 3.5426
C -2.6042 -1.1128 3.4536
N -1.6002 0.8605 2.541
N -2.611 -1.6582 2.1297
C 3.2845 -2.5802 4.6294
C 1.889 -2.5637 3.9423
N 3.9818 -1.3125 4.561
N 2.0669 -2.0177 2.6328
C -0.785 -5.1979 -4.1537
C 0.5989 -4.6175 -4.5325
N -1.6161 -4.1085 -3.7423
N 1.1324 -4.0059 -3.3578
C -5.7202 2.0887 -3.8318
C -5.5331 3.4167 -3.0559
N -5.319 1.0319 -2.9577
N -4.1592 3.4857 -2.6621
C 4.4169 2.9692 -2.2162
C 3.2781 3.9079 -2.676
N 3.9028 1.635 -2.2449
N 2.1703 3.6772 -1.802
H 4.0685 -1.0315 3.5901
H 3.4425 -0.5952 5.0367
H 0.2617 0.5532 1.6881
C 1.2338 -3.9421 4.057
C -1.3696 0.487 4.9376
C 3.767 5.3547 -2.5978
C -7.1895 1.952 -4.233
C 1.5115 -5.7516 -5.0019
H 0.46 -3.8867 -5.3501
C 0.8994 -6.472 -6.1981
H 2.486 -5.3351 -5.266
H 1.6567 -6.4475 -4.1739
C -0.4794 -7.023 -5.847
H 1.5575 -7.2849 -6.5117
H 0.8081 -5.7732 -7.033
C -1.3955 -5.9054 -5.3606
H -0.3788 -7.7757 -5.0615
H -0.9206 -7.5071 -6.7204
H -1.5508 -5.1708 -6.1524
H -2.371 -6.3074 -5.0801
H -0.621 -5.9161 -3.3311
H -0.4735 -0.7102 3.3638
C -1.2595 -0.5912 6.0108
H -2.2816 1.0696 5.0795
H -0.5209 1.1721 4.9987
C -2.4087 -1.5895 5.9026
H -1.2622 -0.1258 6.9988
H -0.3104 -1.1204 5.895
C -2.4614 -2.205 4.5081
H -3.3517 -1.0769 6.1064
H -2.2886 -2.3772 6.6495
H -3.3061 -2.8922 4.4283
H -1.5497 -2.7687 4.3084
H -3.5148 -0.518 3.6471
H 3.0215 3.6686 -3.7237
C 5.6148 3.1338 -3.1465
H 4.6935 3.2695 -1.1894
C 6.1037 4.5787 -3.114
H 5.3172 2.8542 -4.1584
H 6.4107 2.4564 -2.8308
C 4.9838 5.5425 -3.4989
H 6.9461 4.6984 -3.798
H 6.4539 4.8168 -2.1068
H 4.6936 5.3624 -4.5368
H 5.3391 6.5723 -3.4246
H 4.0199 5.5875 -1.562
H 2.959 6.0222 -2.9058
H -5.0935 2.1222 -4.7414
C -5.9198 4.5876 -3.9535
H -6.2014 3.3755 -2.1773
C -7.3747 4.4542 -4.3925
H -5.2593 4.5982 -4.822
H -5.772 5.5212 -3.4073
C -7.6057 3.1276 -5.1115
H -7.6388 5.2836 -5.0514
H -8.0219 4.5058 -3.5136
H -8.6595 3.029 -5.3797
H -7.022 3.1109 -6.0349
H -7.8002 1.9169 -3.3293
H -7.3262 1.01 -4.7688
H 1.2775 -1.8258 4.4835
C 3.1265 -3.0 6.0903
H 3.9077 -3.3148 4.1041
C 2.448 -4.36 6.2083
H 2.5316 -2.2463 6.6133
H 4.1144 -3.0231 6.5518
C 1.0857 -4.3379 5.5223
H 2.3308 -4.6239 7.2612
H 3.0771 -5.1205 5.7403
H 0.4331 -3.6234 6.0306
H 0.6169 -5.3221 5.591
H 1.8562 -4.6804 3.5443
H 0.2532 -3.9263 3.5731

