%chk=_3_alde1_5_ami4_1_opt_gas_pbe.chk
%mem=60000mb
%nprocshared=32

#P PBE1PBE/Def2TZVP SP SCF=(YQC,MaxCycle=900) int=(Grid=Superfinegrid) EmpiricalDispersion=GD3 

_3_alde1_5_ami4_1_opt_gas_pbe

0 1
C -3.9795 -1.5977 -0.6956
C -4.8736 -0.6574 -0.038
C -3.6026 -2.792 -0.082
C -2.6968 -3.6456 -0.7006
H -4.0347 -3.0364 0.8763
C -2.1184 -3.2713 -1.9126
C -2.4575 -2.0671 -2.5179
H -1.3877 -3.9288 -2.3567
C -3.4172 -1.2526 -1.9195
C -1.7412 -1.6126 -3.7003
H -3.6828 -0.3299 -2.4113
C -2.2796 -4.8872 -0.059
H -0.8206 -2.1692 -3.9341
H -5.1762 0.2067 -0.648
H -2.3944 -4.9246 1.0354
C 2.3153 -1.9652 -2.6253
C 2.4366 -1.1445 -3.8828
C 2.8 -1.4618 -1.4294
C 2.6901 -2.1962 -0.2489
H 3.2453 -0.4809 -1.3994
C 2.0998 -3.4536 -0.2803
C 1.6435 -3.9874 -1.4824
H 1.994 -4.0453 0.616
C 1.7499 -3.2311 -2.6493
C 1.0213 -5.3007 -1.5269
H 1.3917 -3.6395 -3.5848
C 3.1464 -1.6305 1.0128
H 0.6589 -5.6203 -2.5169
H 2.732 -2.0958 1.9213
C -1.6187 1.5007 0.873
C -2.6864 1.3074 1.8453
C -1.9221 1.6302 -0.4812
C -0.9129 1.6826 -1.4378
H -2.9614 1.6562 -0.7687
C 0.419 1.6668 -1.0247
C 0.7353 1.5934 0.3284
H 1.2007 1.7052 -1.767
C -0.2868 1.4844 1.2711
C 2.1313 1.6046 0.7384
H -0.0162 1.397 2.3124
C -1.2881 1.7059 -2.8423
H 2.8589 1.706 -0.0787
H -2.3539 1.8925 -3.0347
C -4.9232 1.1966 2.4996
C -5.9477 0.3019 1.7658
N -3.8945 1.542 1.5718
H -4.5327 0.6705 3.3849
N -5.2367 -0.7842 1.1645
H -6.4733 0.9171 1.02
C 3.885 -0.1011 -5.3106
C 3.164 1.0106 -4.5183
N 3.7487 -1.2974 -4.494
H 4.9308 0.1198 -5.5154
N 2.2886 0.2869 -3.6016
H 2.6197 1.694 -5.1756
C -1.2735 -6.995 -0.0687
C 0.1445 -7.2433 -0.6243
N -1.7999 -5.8418 -0.7253
H -1.237 -6.8771 1.0256
N 0.8894 -6.0288 -0.5042
H 0.0566 -7.5748 -1.6709
C -1.291 -0.1031 -5.4203
C -1.0132 1.3858 -5.1161
N -2.1163 -0.6162 -4.3757
H -0.3401 -0.6523 -5.5164
N -0.479 1.4915 -3.7901
H -1.956 1.9409 -5.2236
C 4.2818 -0.0644 2.3125
C 3.8836 1.425 2.2383
N 3.9559 -0.6655 1.0606
H 3.7693 -0.5449 3.1616
N 2.4854 1.5083 1.947
H 4.499 1.9055 1.4634
H -2.3704 0.9111 2.8227
H 1.3201 0.5938 -3.6588
H 1.6963 -1.5001 -4.6264
H 4.4491 -1.29 -3.7567
H -5.4307 2.112 2.8174
H -6.6598 -0.0976 2.4905
H 3.37 -0.2845 -6.2592
H 3.8835 1.5973 -3.9332
H -1.8993 -7.8573 -0.3175
H 0.6334 -8.0172 -0.0285
H -1.8387 -0.1646 -6.3649
H -0.2752 1.7668 -5.8256
H 5.364 -0.125 2.458
H 4.0663 1.8944 3.2072

