%chk=_3_alde1_5_ami3_1_opt_dcm_pbe.chk
%mem=60000mb
%nprocshared=32

#P PBE1PBE/Def2TZVP SP SCF=(YQC,MaxCycle=900) int=(Grid=Superfinegrid) EmpiricalDispersion=GD3 SCRF=(PCM,Solvent=Dichloromethane)

_3_alde1_5_ami3_1_opt_dcm_pbe

0 1
C -2.7642 -1.9163 -0.4886
C -2.8385 -1.5802 0.9243
C -2.0666 -3.0229 -0.9712
C -2.0287 -3.2901 -2.3373
H -1.5682 -3.6705 -0.2662
C -2.6343 -2.4043 -3.2287
C -3.3274 -1.2939 -2.7632
H -2.5635 -2.6175 -4.2844
C -3.4149 -1.0784 -1.3901
C -3.8936 -0.3243 -3.6921
H -3.9763 -0.2247 -1.0448
C -1.3638 -4.484 -2.8396
H -3.459 -0.335 -4.7044
H -3.5753 -0.7957 1.1566
H -0.9051 -5.1307 -2.0778
C 2.2114 -2.9216 -0.1961
C 1.8476 -3.5506 1.1231
C 2.8578 -1.6956 -0.2495
C 3.1998 -1.1223 -1.4733
H 3.0809 -1.1779 0.6717
C 2.8544 -1.7744 -2.6547
C 2.2097 -3.0037 -2.6115
H 3.1024 -1.3036 -3.5935
C 1.911 -3.5785 -1.3759
C 1.7547 -3.663 -3.8268
H 1.4222 -4.5392 -1.3624
C 3.8809 0.1615 -1.4972
H 1.6814 -3.027 -4.7231
H 4.0218 0.639 -0.5143
C -0.5954 1.4764 0.2767
C -0.4363 0.6702 1.4787
C -1.8691 1.8345 -0.1602
C -2.0548 2.434 -1.4011
H -2.7105 1.5939 0.4709
C -0.9444 2.7211 -2.1935
C 0.3374 2.433 -1.7396
H -1.1061 3.1699 -3.1616
C 0.5047 1.7957 -0.511
C 1.4978 2.7109 -2.577
H 1.5038 1.536 -0.1978
C -3.408 2.6282 -1.8944
H 1.3022 2.7634 -3.6599
H -4.2059 2.3901 -1.1742
C -1.2113 -0.4346 3.3692
C -2.2761 -1.5411 3.1535
N -1.3678 0.5195 2.3174
H -0.2092 -0.8955 3.3447
C -1.4465 0.2042 4.7385
N -2.1263 -2.0903 1.8354
H -3.262 -1.0554 3.263
C -2.1143 -2.6109 4.229
H -2.4371 0.6619 4.7494
C -1.3329 -0.8447 5.8407
H -1.1192 -3.0525 4.1495
C -2.3116 -1.9937 5.6103
H -1.53 -0.3805 6.8092
H -0.3138 -1.2368 5.8604
H -2.1746 -2.7566 6.3796
H -3.3345 -1.6186 5.691
C 2.5697 -2.7967 3.2165
C 2.8821 -4.2922 3.0364
N 1.6005 -2.5255 2.1632
H 3.4785 -2.2233 2.9717
C 2.1927 -2.5106 4.6561
N 2.9145 -4.4485 1.5905
H 2.0197 -4.8761 3.3904
C 4.106 -4.6768 3.8412
H 1.3085 -3.0918 4.9316
C 3.3818 -2.9174 5.5329
H 4.9685 -4.0939 3.5085
C 3.7987 -4.3748 5.3119
H 3.128 -2.7718 6.5848
H 4.2273 -2.2648 5.3021
H 4.6766 -4.5926 5.923
H 2.9914 -5.0318 5.644
C -0.6123 -5.9209 -4.5073
C 0.7919 -5.4571 -4.9709
N -1.3345 -4.7663 -4.0699
H -0.4573 -6.6387 -3.6829
C -1.3414 -6.5946 -5.6669
N 1.4156 -4.8769 -3.8273
H 0.6679 -4.7269 -5.7916
C 1.5847 -6.6664 -5.4668
H -1.4817 -5.8613 -6.4628
C -0.5432 -7.7878 -6.1805
H 1.72 -7.359 -4.6344
C 0.8534 -7.3531 -6.6149
H -1.068 -8.2484 -7.0199
H -0.4589 -8.5344 -5.3873
H 1.4271 -8.2202 -6.9484
H 0.7714 -6.6612 -7.4566
C -5.1819 1.5319 -4.2594
C -5.0284 2.883 -3.5173
N -4.7832 0.5014 -3.3519
H -4.5368 1.5503 -5.1565
C -6.6399 1.3678 -4.6898
N -3.6679 2.9645 -3.0832
H -5.7235 2.8637 -2.6586
C -5.3966 4.0226 -4.4611
H -7.2721 1.3546 -3.8003
C -7.0437 2.5126 -5.6139
H -4.7134 4.011 -5.3119
C -6.8388 3.8637 -4.9331
H -8.0903 2.398 -5.9032
H -6.4385 2.471 -6.5227
H -7.0913 4.6691 -5.6257
H -7.5086 3.9395 -4.0732
C 4.8554 2.015 -2.4874
C 3.7778 3.019 -2.9543
N 4.2869 0.7045 -2.5617
H 5.1195 2.2807 -1.4476
C 6.0845 2.1322 -3.3849
N 2.65 2.8585 -2.0905
H 3.5185 2.7987 -4.0055
C 4.3424 4.4378 -2.8607
H 5.798 1.8771 -4.4064
C 6.6458 3.5493 -3.3276
H 4.5859 4.6516 -1.8185
C 5.5855 4.5689 -3.7348
H 7.5113 3.6301 -3.9884
H 6.9803 3.7635 -2.3098
H 5.989 5.5798 -3.6484
H 5.31 4.406 -4.7794
H 0.5278 0.1493 1.5754
H 3.8106 -4.128 1.2303
H 0.9432 -4.1606 0.9848
H 0.6488 -2.616 2.5026
H -0.7098 0.9955 4.8928
H -2.8459 -3.4032 4.0589
H 1.9684 -1.4511 4.7978
H 4.339 -5.7346 3.7121
H -2.3287 -6.9144 -5.3277
H 2.573 -6.3326 -5.7905
H -6.7559 0.4089 -5.1998
H -5.27 4.9741 -3.9411
H 6.8366 1.4117 -3.0575
H 3.576 5.1477 -3.1799

