%RWF=Gau-3992781.rwf
%chk=_3_alde1_5_ami1_2_opt_gas_mp2.chk
%mem=60000mb
%nprocshared=32

#P Restart

