%chk=_3_alde1_6_ami1_1_opt_dcm_pbe.chk
%mem=60000mb
%nprocshared=32

#P PBE1PBE/Def2TZVP SP SCF=(YQC,MaxCycle=900) int=(Grid=Superfinegrid) EmpiricalDispersion=GD3 SCRF=(PCM,Solvent=Dichloromethane)

_3_alde1_6_ami1_1_opt_dcm_pbe

0 1
C -2.8508 -2.1294 -0.3838
C -2.8718 -3.1333 -1.505
C -2.5694 -2.583 0.894
C -2.5464 -1.7136 1.9811
H -2.3436 -3.623 1.0593
C -2.8053 -0.3651 1.7745
C -3.1051 0.1056 0.4981
H -2.8027 0.3374 2.5936
C -3.1173 -0.7828 -0.5781
C -3.4604 1.5035 0.2943
H -3.3581 -0.4169 -1.5668
C -2.2394 -2.239 3.3046
H -3.5578 1.8316 -0.753
H -1.8475 -1.517 4.0376
C 1.9178 -2.06 -0.1443
C 1.9376 -2.0602 -1.653
C 2.6812 -1.1536 0.5727
C 2.6623 -1.1525 1.9674
H 3.287 -0.4209 0.0657
C 1.863 -2.0641 2.6413
C 1.102 -2.9897 1.931
H 1.8274 -2.0875 3.7197
C 1.1298 -2.9788 0.5378
C 0.2626 -3.9471 2.6315
H 0.5227 -3.6801 -0.0156
C 3.4807 -0.1984 2.7051
H -0.3337 -4.6124 1.99
H 3.1179 0.0707 3.7102
C 1.3012 3.9989 -1.9841
C 1.184 4.4086 -3.4273
C 0.2215 4.1076 -1.1261
C 0.3395 3.7493 0.2181
H -0.7327 4.469 -1.4764
C 1.5641 3.3024 0.6989
C 2.6593 3.195 -0.154
H 1.6905 3.0316 1.736
C 2.5143 3.529 -1.4978
C 3.9564 2.7647 0.3492
H 3.3487 3.4301 -2.1772
C -0.8051 3.8678 1.1101
H 4.6658 2.3974 -0.4098
H -0.66 3.4912 2.1346
C -1.9551 -5.1592 -2.2207
C -3.4658 -5.365 -1.9191
N -1.6565 -3.9383 -1.4868
H -1.3552 -5.9717 -1.7951
C -1.6214 -5.0752 -3.7288
N -3.9489 -4.0975 -1.3624
H -4.0074 -5.5162 -2.8611
C -3.8046 -6.5506 -0.9963
H -2.1466 -4.2075 -4.1448
C -2.0465 -6.3241 -4.4983
C -0.1154 -4.8848 -3.9195
H -4.8788 -6.4685 -0.7874
C -3.0603 -6.5203 0.3385
C -3.5647 -7.8864 -1.6964
H 0.4197 -5.7571 -3.5471
H 0.2488 -4.0091 -3.3904
H 0.1175 -4.7678 -4.9764
H -1.5702 -7.2072 -4.0781
H -1.7406 -6.2362 -5.5391
H -3.1221 -6.4712 -4.4782
H -4.1185 -7.9391 -2.6304
H -3.8919 -8.7055 -1.0596
H -2.5087 -8.0254 -1.913
H -1.9853 -6.5817 0.1897
H -3.3693 -7.3668 0.9486
H -3.2767 -5.6134 0.8979
C 2.3782 -0.799 -3.5697
C 0.8733 -1.1922 -3.5438
N 2.7826 -1.0077 -2.192
H 2.5072 0.2662 -3.8023
C 3.1703 -1.62 -4.614
N 0.6239 -1.7931 -2.2285
H 0.7081 -1.982 -4.2884
C -0.0709 -0.0284 -3.8839
H 2.958 -2.6832 -4.4493
C 4.6767 -1.3937 -4.4784
C 2.7399 -1.2423 -6.0299
H 0.3521 0.4614 -4.7699
C -0.1688 1.0007 -2.7572
C -1.4568 -0.5523 -4.2519
H 3.243 -1.8753 -6.7575
H 3.009 -0.2085 -6.2357
H 1.6677 -1.3547 -6.168
H 5.0698 -1.8126 -3.5542
H 4.9012 -0.3289 -4.5004
H 5.1992 -1.8728 -5.3035
H -1.8637 -1.1291 -3.4262
H -1.4076 -1.1943 -5.1292
H -2.1312 0.2737 -4.4685
H 0.8147 1.2434 -2.3611
H -0.79 0.6365 -1.9401
H -0.6267 1.917 -3.1235
C 2.2511 4.2371 -5.5194
C 2.0662 5.7251 -5.0991
N 1.9215 3.4985 -4.3086
H 3.3087 4.0445 -5.7502
C 1.4421 3.8631 -6.7801
N 1.7844 5.7071 -3.6683
H 1.1644 6.1137 -5.5904
C 3.2336 6.6409 -5.4886
H 1.6491 4.64 -7.5258
C -0.0664 3.8115 -6.542
C 1.9201 2.5233 -7.3388
H 3.4339 6.4565 -6.551
C 4.5147 6.3602 -4.702
C 2.8265 8.1028 -5.3133
H 2.9838 2.5563 -7.5647
H 1.3829 2.2772 -8.252
H 1.7472 1.7261 -6.6182
H -0.4393 4.7537 -6.1478
H -0.3245 3.0176 -5.8428
H -0.5803 3.6097 -7.4795
H 1.9925 8.3509 -5.9656
H 3.6585 8.7611 -5.5526
H 2.5211 8.2799 -4.2852
H 4.436 6.7378 -3.6845
H 5.3544 6.8623 -5.1773
H 4.7329 5.2954 -4.6641
C -1.9814 -3.9842 4.8338
C -0.7462 -4.8754 4.5063
N -2.4126 -3.4575 3.5762
H -1.6428 -3.1775 5.5073
C -3.1418 -4.743 5.5028
N 0.2102 -4.0042 3.8913
H -1.0879 -5.6476 3.7959
C -0.1112 -5.5572 5.7293
H -2.7736 -5.1736 6.4392
C -3.6873 -5.8563 4.6133
C -4.2539 -3.7494 5.8403
H -0.8613 -6.2069 6.1913
C 0.383 -4.5431 6.7565
C 1.0505 -6.4304 5.2539
H -4.651 -3.309 4.9283
H -3.8778 -2.949 6.4745
H -5.0635 -4.2514 6.3653
H -4.5889 -6.2766 5.0536
H -2.9624 -6.6573 4.4953
H -3.9288 -5.454 3.6336
H 1.8124 -5.81 4.7876
H 0.7092 -7.1633 4.5253
H 1.4957 -6.9606 6.0927
H 0.9613 -5.0452 7.5291
H -0.4476 -4.0301 7.2344
H 1.0145 -3.8087 6.265
C -4.115 3.619 1.0562
C -2.9931 4.5266 1.6203
N -3.6918 2.2689 1.2676
H -4.215 3.845 -0.0206
C -5.4893 3.8013 1.7336
N -1.8845 4.3918 0.7263
H -2.743 4.1575 2.631
C -3.3608 6.0219 1.7117
H -5.7984 4.8426 1.6039
C -5.4368 3.4693 3.2219
C -6.5201 2.9146 1.0344
H -4.2316 6.1211 2.3666
C -3.6854 6.6118 0.3425
C -2.2019 6.7876 2.3506
H -6.2619 1.8652 1.1585
H -6.5615 3.1364 -0.0304
H -7.508 3.0807 1.4578
H -6.4364 3.5136 3.6492
H -4.8045 4.171 3.7592
H -5.0401 2.4672 3.3578
H -1.3191 6.732 1.7176
H -1.9547 6.3715 3.3254
H -2.4692 7.8338 2.4819
H -3.8451 7.6847 0.4274
H -4.5836 6.1653 -0.0756
H -2.8571 6.4323 -0.3369
C 5.3148 1.2212 2.9639
C 5.5523 2.4149 2.0093
N 4.5427 0.2705 2.2191
H 4.7502 1.5834 3.8401
C 6.6126 0.5535 3.4668
N 4.2576 2.8444 1.5693
H 6.1505 2.0482 1.1565
C 6.2908 3.6056 2.6527
H 7.2145 1.3223 3.9618
C 7.421 -0.0638 2.3288
C 6.2684 -0.5154 4.5039
H 7.2614 3.2481 3.0116
C 5.5096 4.2039 3.8192
C 6.5443 4.6748 1.5896
H 5.6823 -1.3108 4.0484
H 5.6947 -0.0883 5.3243
H 7.1783 -0.9489 4.9128
H 6.7854 -0.7232 1.7439
H 8.2514 -0.6396 2.7321
H 7.8276 0.7024 1.6742
H 7.1262 5.4929 2.0082
H 5.5997 5.0721 1.2249
H 7.0938 4.2594 0.7468
H 5.9808 5.1275 4.1484
H 5.4787 3.5207 4.6638
H 4.4925 4.4195 3.5038
H 3.769 -1.2032 -2.0901
H 2.248 -3.0697 -2.0027
H 0.1487 -1.124 -1.6308
H 2.6558 5.7556 -3.1492
H 1.4152 2.6423 -4.4899
H 0.1148 4.4867 -3.6995
H -4.1737 -4.2091 -0.38
H -0.8593 -3.4218 -1.8457
H -3.0255 -2.6152 -2.4733

