%chk=_3_alde1_4_ami2_1_opt_cfm_mp2.chk
%mem=60000mb
%nprocshared=32

#P MP2/aug-cc-pVDZ SP SCF=(YQC,MaxCycle=900) int=(Grid=Superfinegrid)  SCRF=(PCM,Solvent=Chloroform)

_3_alde1_4_ami2_1_opt_cfm_mp2

0 1
C -2.9039 -2.2089 -0.4517
C -2.4092 -2.1858 0.9232
C -2.4708 -3.1815 -1.343
C -2.9038 -3.1756 -2.6706
H -1.8 -3.9654 -1.0272
C -3.7284 -2.1493 -3.1165
C -4.1548 -1.1542 -2.2378
H -4.0424 -2.0947 -4.1479
C -3.7695 -1.214 -0.9035
C -4.9236 -0.0106 -2.7048
H -4.1028 -0.4715 -0.1964
C -2.4467 -4.2067 -3.592
H -5.3487 0.6274 -1.9159
H -1.5217 -2.8049 1.1023
H -2.8893 -4.1898 -4.5995
C 2.1241 -2.5749 0.3291
C 2.0781 -2.6681 1.794
C 2.7012 -1.4746 -0.2968
C 2.7184 -1.3882 -1.6878
H 3.1369 -0.6717 0.2779
C 2.1584 -2.4162 -2.4385
C 1.5947 -3.535 -1.8258
H 2.1506 -2.3756 -3.5173
C 1.5751 -3.6036 -0.4389
C 0.983 -4.588 -2.6301
H 1.1364 -4.45 0.0703
C 3.2947 -0.2329 -2.3702
H 0.5132 -5.3974 -2.0639
H 2.5446 -1.8075 2.3124
H 3.0476 -0.1701 -3.4359
C -1.7381 1.8397 0.2544
C -2.4616 1.3445 1.415
C -2.4193 2.0881 -0.9304
C -1.7303 2.4224 -2.0956
H -3.4924 1.9968 -0.9858
C -0.3479 2.5628 -2.0516
C 0.3465 2.3626 -0.8573
H 0.2141 2.8298 -2.9338
C -0.352 1.9808 0.2826
C 1.7905 2.5175 -0.7833
H 0.1636 1.7821 1.2098
C -2.4544 2.5378 -3.3584
H 2.2342 2.2906 0.1985
H -1.8174 2.5733 -4.2508
C -2.6316 0.2106 3.4234
C -2.5091 -1.3183 3.15
N -1.866 0.8897 2.4307
N -2.973 -1.4762 1.797
O 1.5869 -3.576 2.4157
C -1.0224 -5.9977 -4.1336
C 0.3094 -5.4442 -4.7412
N -1.5822 -5.0503 -3.2298
N 0.9907 -4.5078 -3.8882
C -5.6459 1.517 -4.2815
C -4.5166 2.5495 -4.572
N -5.0447 0.2708 -3.9295
N -3.7133 2.5508 -3.3792
C 4.5737 1.7768 -2.3603
C 3.9115 2.9598 -1.6016
N 4.0181 0.5953 -1.7573
N 2.4944 2.8951 -1.7602
H -3.5582 1.3399 1.3288
H -1.6927 -6.248 -4.9688
H -0.8125 -6.9052 -3.5601
H 4.2628 3.8961 -2.0414
H 4.2153 2.9076 -0.5444
H -2.2172 0.4353 4.4079
H -3.6974 0.4832 3.3909
C 4.3474 1.9504 -3.8646
H 4.7385 1.0959 -4.4139
H 4.8662 2.8431 -4.2035
H 3.2873 2.0674 -4.075
C 6.0742 1.7628 -2.0477
H 6.5259 2.7155 -2.3116
H 6.5603 0.9719 -2.6144
H 6.2311 1.5736 -0.9893
C -0.0006 -4.6682 -6.027
H -0.6972 -3.8607 -5.8136
H -0.4286 -5.323 -6.7819
H 0.9168 -4.2317 -6.4123
C 1.251 -6.6127 -5.0545
H 0.7656 -7.3149 -5.7279
H 1.5273 -7.1317 -4.139
H 2.1565 -6.2378 -5.5254
C -1.0705 -1.7628 3.4216
H -0.9453 -2.8316 3.2649
H -0.81 -1.5404 4.4528
H -0.3899 -1.2236 2.7662
C -3.4842 -2.0715 4.0613
H -4.5082 -1.7919 3.827
H -3.2798 -1.8393 5.1032
H -3.3747 -3.143 3.9096
C -5.1398 3.9436 -4.7092
H -5.6059 4.2388 -3.7727
H -5.889 3.9446 -5.4966
H -4.3678 4.6702 -4.9536
H -6.275 1.9177 -3.4721
H -6.2448 1.3768 -5.1835
C -3.7932 2.1623 -5.8649
H -3.3411 1.1794 -5.7537
H -3.0243 2.8905 -6.1151
H -4.5072 2.1279 -6.6833

