%chk=_3_alde1_6_ami2_1_opt_gas_pbe.chk
%mem=60000mb
%nprocshared=32

#P PBE1PBE/Def2TZVP SP SCF=(YQC,MaxCycle=900) int=(Grid=Superfinegrid) EmpiricalDispersion=GD3 

_3_alde1_6_ami2_1_opt_gas_pbe

0 1
C -3.9845 -1.337 0.0777
C -4.6071 -2.0069 1.2762
C -3.1511 -2.0606 -0.7595
C -2.5702 -1.4688 -1.8805
H -2.9213 -3.0951 -0.5601
C -2.8237 -0.1289 -2.15
C -3.6465 0.6143 -1.3094
H -2.3889 0.3625 -3.0072
C -4.2208 0.0016 -0.1971
C -3.8931 2.0294 -1.566
H -4.8662 0.577 0.4523
C -1.7339 -2.2553 -2.7812
H -4.2554 2.5907 -0.6968
H -1.272 -1.686 -3.5964
C 4.0834 -1.5185 0.6948
C 4.4814 -1.2991 2.1261
C 4.6836 -0.8197 -0.3401
C 4.2498 -0.9914 -1.6563
H 5.4943 -0.1359 -0.1463
C 3.2256 -1.8895 -1.9268
C 2.6541 -2.641 -0.9025
H 2.8714 -2.0412 -2.9349
C 3.0857 -2.4411 0.4063
C 1.6316 -3.6362 -1.1895
H 2.6543 -3.0076 1.2174
C 4.8247 -0.2087 -2.7441
H 1.2064 -4.1546 -0.3161
H 4.2279 -0.212 -3.6643
C 1.1378 2.1664 0.2509
C 0.7395 1.6341 1.6106
C 0.1999 2.6348 -0.6535
C 0.5922 3.0525 -1.9258
H -0.8427 2.676 -0.3843
C 1.9344 3.0146 -2.2817
C 2.8923 2.5962 -1.3615
H 2.2636 3.3354 -3.2582
C 2.4797 2.1632 -0.104
C 4.3087 2.5907 -1.6831
H 3.2184 1.8172 0.6057
C -0.4085 3.5061 -2.885
H 4.9745 2.3075 -0.8542
H -0.1471 3.3687 -3.9471
C -5.4204 -4.0057 2.0583
C -3.9981 -3.8612 2.66
N -5.4504 -3.1267 0.9028
H -5.6667 -5.0287 1.7815
N -3.5601 -2.5514 2.1617
C -4.015 -3.9195 4.1853
C -3.056 -4.9347 2.1036
C 3.8559 -0.8461 4.2683
C 4.8483 0.2776 3.8159
N 3.3624 -1.468 3.0528
H 3.037 -0.4585 4.8723
N 5.0541 0.0212 2.3851
C 6.1902 0.155 4.5382
C 4.2505 1.6644 4.0404
C -0.2101 -0.5073 2.0429
C -1.2863 0.5184 1.62
N 1.0455 0.1877 1.7125
C -0.3541 -1.8279 1.3024
C -0.2485 -0.7484 3.5562
N -0.6823 1.8167 1.868
H -2.2269 0.4089 2.1554
C -0.8519 -4.3641 -3.4794
C 0.3091 -4.9197 -2.6181
N -1.6086 -3.4983 -2.617
C -1.7961 -5.521 -3.8345
C -0.2877 -3.7366 -4.7572
N 1.2829 -3.9098 -2.3702
H 0.8033 -5.7116 -3.19
H 0.2005 -4.5058 -5.3493
C -3.8673 3.9244 -3.0087
C -2.4723 4.4013 -3.4875
N -3.6985 2.5275 -2.7054
C -4.858 4.0095 -4.1753
C -4.3297 4.8191 -1.854
N -1.4941 4.0265 -2.5177
H -2.4867 5.4932 -3.5596
H -5.2804 4.4734 -1.4523
C 6.4429 1.3022 -3.6051
C 6.1611 2.7338 -3.0491
N 5.9134 0.4125 -2.6103
C 7.957 1.0762 -3.6458
C 5.8503 1.1867 -5.0135
N 4.7602 2.8899 -2.8254
H 6.4789 3.4663 -3.7934
H 2.5664 -0.9356 2.6938
H 5.2462 -2.0416 2.4114
H 4.5504 0.7134 1.8379
H -0.8302 2.0879 2.8334
H 1.3961 -0.1476 0.8188
H 1.3238 2.1722 2.3736
H -3.3495 -1.9117 2.9169
H -5.0464 -3.5942 0.0968
H -5.2417 -1.2809 1.8157
H 4.3938 -1.6039 4.8465
H 4.1436 1.8622 5.1047
H 3.2681 1.7341 3.5739
H 4.8969 2.4277 3.6108
H -6.1655 -3.645 2.7758
H -3.0708 -4.9258 1.0166
H -3.3551 -5.9202 2.4525
H -2.0381 -4.7377 2.4306
H -1.4781 0.4205 0.5472
H -0.1679 0.1902 4.101
H 0.5819 -1.3856 3.8497
H -1.1791 -1.2377 3.8323
H -0.104 -5.3478 -1.6901
H -1.087 -3.2957 -5.3501
H 0.4485 -2.9765 -4.5108
H -2.2532 3.9837 -4.483
H -4.4632 5.8348 -2.2176
H -3.5795 4.8269 -1.0672
H 6.7456 2.8562 -2.1257
H 6.8625 0.9417 4.2058
H 6.6482 -0.8039 4.3113
H 6.0515 0.2372 5.6136
H -3.0065 -3.8048 4.5781
H -4.409 -4.8764 4.5194
H -4.6426 -3.1283 4.5935
H 0.3953 -2.5327 1.6529
H -0.2302 -1.6865 0.2294
H -1.3451 -2.2397 1.482
H -1.2677 -6.286 -4.3974
H -2.623 -5.1485 -4.4348
H -2.201 -5.9609 -2.9271
H 5.902 0.1572 -5.364
H 6.4201 1.8133 -5.6946
H 4.8166 1.523 -5.0213
H 8.3553 1.066 -2.635
H 8.4462 1.8613 -4.2167
H 8.1713 0.116 -4.1092
H -4.8849 5.0194 -4.5769
H -5.8544 3.7378 -3.8342
H -4.5641 3.319 -4.9613

