%chk=_3_alde1_4_ami4_1_opt_dcm_pbe.chk
%mem=60000mb
%nprocshared=32

#P PBE1PBE/Def2TZVP SP SCF=(YQC,MaxCycle=900) int=(Grid=Superfinegrid) EmpiricalDispersion=GD3 SCRF=(PCM,Solvent=Dichloromethane)

_3_alde1_4_ami4_1_opt_dcm_pbe

0 1
C -3.1867 -2.145 -0.1294
C -3.293 -1.877 1.2991
C -2.5124 -3.2681 -0.5936
C -2.3542 -3.4829 -1.9631
H -2.1096 -4.0003 0.0895
C -2.8293 -2.5354 -2.8641
C -3.5019 -1.4016 -2.4126
H -2.6893 -2.6584 -3.9273
C -3.7022 -1.2311 -1.0476
C -3.9572 -0.3711 -3.3338
H -4.234 -0.373 -0.6682
C -1.6708 -4.6672 -2.4584
H -4.6257 0.3845 -2.8964
H -2.6051 -2.4474 1.9425
H -1.6344 -4.7657 -3.5538
C 0.8239 -1.0883 -4.6859
C -0.1191 -0.7682 -5.7656
C 1.6996 -0.106 -4.2232
C 2.5716 -0.3701 -3.1732
H 1.6871 0.864 -4.7005
C 2.5544 -1.6319 -2.5795
C 1.7067 -2.6296 -3.0495
H 3.2269 -1.8159 -1.7554
C 0.8436 -2.3527 -4.1085
C 1.6868 -3.9398 -2.4097
H 0.1883 -3.1335 -4.4607
C 3.4535 0.6796 -2.6847
H 2.1104 -3.9816 -1.3946
H -0.7667 -1.6117 -6.0664
H 3.3788 1.6419 -3.2123
C -1.8741 1.8437 0.3461
C -2.965 1.6143 1.2808
C -2.1569 1.9871 -1.0075
C -1.1303 2.0889 -1.9454
H -3.1745 1.9861 -1.3655
C 0.1876 2.1144 -1.5044
C 0.4871 1.9913 -0.1478
H 1.0037 2.2075 -2.2036
C -0.5454 1.83 0.7689
C 1.8758 1.9418 0.291
H -0.3421 1.6959 1.8203
C -1.4313 2.0527 -3.3705
H 2.0486 1.4664 1.2693
H -0.5686 1.9061 -4.0357
C -3.916 0.8609 3.2464
C -4.0673 -0.6734 3.1439
N -2.7754 1.2467 2.4738
N -4.0945 -1.0202 1.7596
O -0.2167 0.311 -6.2951
C -0.399 -6.5914 -2.283
C 1.0915 -6.19 -2.2863
N -1.15 -5.526 -1.6934
N 1.2054 -4.9516 -2.9852
C -3.9789 0.8266 -5.3064
C -2.8795 1.9068 -5.1939
N -3.5859 -0.3176 -4.5396
N -2.6123 2.121 -3.807
C 4.9548 1.6452 -1.219
C 4.1743 2.2127 -0.0136
N 4.2411 0.5089 -1.7133
N 2.816 2.393 -0.4159
H -3.9754 1.7383 0.864
H -3.269 2.835 -5.6222
H -1.9855 1.5955 -5.7524
H -4.9245 1.2559 -4.9428
H -4.0797 0.5296 -6.3518
H -0.705 -6.7917 -3.3208
H -0.5272 -7.489 -1.6747
H 1.6538 -6.9516 -2.8333
H 1.464 -6.1285 -1.2516
H 4.5977 3.1883 0.243
H 4.2708 1.5387 0.852
H 5.0474 2.4369 -1.9775
H 5.9452 1.3248 -0.8896
H -5.0228 -0.9562 3.5952
H -3.2473 -1.1691 3.6871
H -3.7475 1.1365 4.2893
H -4.8431 1.3256 2.8782

