%RWF=Gau-3889488.rwf
%chk=_3_alde1_5_ami1_2_opt_dcm_mp2.chk
%mem=60000mb
%nprocshared=32

#P Restart

