%chk=_3_alde1_5_ami2_1_opt_gas_pbe.chk
%mem=60000mb
%nprocshared=32

#P PBE1PBE/Def2TZVP SP SCF=(YQC,MaxCycle=900) int=(Grid=Superfinegrid) EmpiricalDispersion=GD3 

_3_alde1_5_ami2_1_opt_gas_pbe

0 1
C -3.5783 -1.7631 -1.1263
C -4.4619 -0.8438 -0.4249
C -3.0545 -2.8938 -0.5046
C -2.1457 -3.7092 -1.1735
H -3.354 -3.1404 0.5006
C -1.7306 -3.363 -2.4583
C -2.2515 -2.2411 -3.0953
H -1.004 -3.9823 -2.9661
C -3.1947 -1.4628 -2.4299
C -1.7652 -1.847 -4.4132
H -3.5957 -0.6034 -2.9434
C -1.602 -4.9055 -0.5483
H -0.8508 -2.3619 -4.7331
H -4.9333 -0.0734 -1.0544
H -0.7966 -5.4074 -1.1064
C 3.0826 -2.8636 -0.8295
C 3.688 -3.3913 -2.1159
C 3.4466 -1.6169 -0.3483
C 2.8582 -1.1036 0.8071
H 4.1762 -1.0228 -0.8736
C 1.9018 -1.8595 1.4775
C 1.5682 -3.1342 1.0312
H 1.4312 -1.4628 2.3673
C 2.1651 -3.6293 -0.1269
C 0.5956 -3.9281 1.7739
H 1.8895 -4.6093 -0.4806
C 3.2191 0.2161 1.2981
H -0.0241 -3.3546 2.4746
H 2.6092 0.5987 2.1327
C -1.4509 1.8657 -0.1995
C -2.2548 1.6244 0.9947
C -2.0258 1.7627 -1.4647
C -1.246 1.8511 -2.6121
H -3.087 1.5809 -1.5258
C 0.1228 2.0861 -2.4894
C 0.7006 2.253 -1.2362
H 0.7176 2.1487 -3.3876
C -0.0894 2.125 -0.0945
C 2.1292 2.5302 -1.1223
H 0.3855 2.231 0.869
C -1.8677 1.6414 -3.9099
H 2.7071 2.3345 -2.0322
H -2.9679 1.6242 -3.9047
C -4.3668 1.2024 2.0319
C -5.3756 0.1782 1.4332
N -3.5101 1.5513 0.93
N -4.6395 -0.8824 0.8237
H -6.014 0.7093 0.7103
C 2.9232 -1.9904 -3.846
C 1.9201 -3.1428 -3.5252
N 4.076 -2.2815 -2.9837
N 2.6836 -4.1705 -2.8372
C -1.4008 -6.4843 1.1362
C -0.4503 -6.0106 2.2725
N -2.034 -5.3489 0.551
H -2.1735 -7.1231 1.5697
N 0.5169 -5.175 1.6157
C 0.3152 -7.2215 2.8169
C -1.8848 -0.4368 -6.3402
C -1.9257 1.1091 -6.1553
N -2.3546 -0.9621 -5.0873
C -0.4757 -0.8582 -6.7672
N -1.2064 1.4554 -4.9697
H -2.9806 1.4182 -6.1023
C 4.422 2.2032 1.2752
C 4.0171 3.2124 0.1651
N 4.1729 0.8801 0.8079
H 3.8556 2.4415 2.19
N 2.616 2.9717 -0.0482
H -1.6722 1.4827 1.9133
H 3.1429 -4.7734 -3.5152
H 4.5542 -4.0141 -1.8643
H 4.8904 -2.5177 -3.5384
H -5.9882 -0.2344 2.237
H -0.8051 -7.0553 0.4074
C -1.2777 -5.3619 3.3865
C -2.9038 -0.8382 -7.413
H -1.4423 1.5851 -7.0107
H 5.4928 2.3055 1.4671
C 4.9359 3.0266 -1.0456
C 4.1415 4.6377 0.7143
H 4.6206 3.6665 -1.8679
H 4.9289 1.9876 -1.3649
H 5.9518 3.2963 -0.7697
C -5.126 2.4689 2.4441
C -3.6748 0.5792 3.2476
H -5.5685 2.9403 1.5704
H -4.4408 3.1761 2.9067
H -5.9122 2.2222 3.153
H -3.9102 -0.6037 -7.0766
H -2.8435 -1.9087 -7.5972
H -2.7041 -0.3076 -8.3404
H -1.9017 -6.1177 3.8559
H -1.9232 -4.5889 2.9775
H -0.6255 -4.9323 4.145
H -4.4219 0.3014 3.9862
H -2.9865 1.2843 3.7096
H -3.1341 -0.3143 2.9446
H 0.2472 -0.5342 -6.0222
H -0.2307 -0.3897 -7.7169
H -0.4133 -1.9377 -6.8935
H 3.9088 5.3551 -0.0694
H 5.1514 4.8205 1.0725
H 3.4402 4.7825 1.5316
H -0.3757 -7.9879 3.1589
H 0.943 -6.9141 3.6501
H 0.9533 -7.6342 2.0404
H 1.4435 -3.5415 -4.4201
H 1.1535 -2.7769 -2.8368
C 2.3343 -0.6292 -3.4729
H 1.4128 -0.4455 -4.021
H 3.0487 0.1558 -3.7083
H 2.1183 -0.593 -2.4084
C 3.3283 -2.0031 -5.3206
H 3.7038 -2.9844 -5.612
H 4.109 -1.2665 -5.5009
H 2.4762 -1.7601 -5.9509

