%chk=_3_alde1_5_ami1_2_opt_cfm_pbe.chk
%mem=60000mb
%nprocshared=32

#P PBE1PBE/Def2TZVP SP SCF=(YQC,MaxCycle=900) int=(Grid=Superfinegrid) EmpiricalDispersion=GD3 SCRF=(PCM,Solvent=Chloroform)

_3_alde1_5_ami1_2_opt_cfm_pbe

0 1
C -3.2329 -1.77 -0.559
C -3.365 -1.3815 0.8362
C -2.4593 -2.8644 -0.9417
C -2.2823 -3.1703 -2.2866
H -2.0028 -3.4674 -0.1716
C -2.8369 -2.3363 -3.2584
C -3.606 -1.2387 -2.8917
H -2.6582 -2.5695 -4.297
C -3.8265 -0.984 -1.5392
C -4.11 -0.3074 -3.8922
H -4.4424 -0.139 -1.2748
C -1.524 -4.3529 -2.6674
H -3.6506 -0.3853 -4.8902
H -4.0631 -0.5527 1.0286
H -1.0754 -4.9181 -1.8362
C 2.8604 -2.8783 -0.0693
C 2.9404 -3.5462 1.2231
C 3.409 -1.6059 -0.2312
C 3.3644 -0.9632 -1.4619
H 3.8864 -1.1408 0.6184
C 2.7323 -1.5899 -2.5354
C 2.1836 -2.8588 -2.3907
H 2.6975 -1.0735 -3.4824
C 2.2568 -3.5016 -1.1549
C 1.5632 -3.5186 -3.5318
H 1.8359 -4.4915 -1.0645
C 3.9984 0.3377 -1.6207
H 1.321 -2.8691 -4.3873
H 2.4919 -4.5512 1.281
H 4.3324 0.8212 -0.6895
C -0.7392 1.3644 -0.0064
C -0.6153 0.5836 1.2193
C -2.004 1.7242 -0.4702
C -2.1651 2.3229 -1.7142
H -2.8568 1.4909 0.1474
C -1.0369 2.6115 -2.4796
C 0.2355 2.3278 -1.9977
H -1.1749 3.0695 -3.4473
C 0.3786 1.6832 -0.7692
C 1.403 2.6878 -2.7919
H 1.3728 1.433 -0.431
C -3.5047 2.5629 -2.2286
H 1.2155 2.8554 -3.8649
H -4.3226 2.3952 -1.512
C -1.4793 -0.4059 3.1586
C -2.7366 -1.317 3.0656
N -1.567 0.4825 2.0382
H -0.5834 -1.0425 3.0836
C -1.3886 0.398 4.4714
N -2.6837 -1.9058 1.7587
H -3.6179 -0.6597 3.161
C -2.8182 -2.4219 4.131
H -1.4657 -0.31 5.3023
C -2.5027 1.4342 4.5904
C -0.02 1.0735 4.5543
H -2.847 -1.9486 5.1176
C -1.6255 -3.37 4.0632
C -4.1215 -3.1974 3.9353
H 0.0993 1.7864 3.7408
H 0.7767 0.3341 4.4936
H 0.0754 1.6089 5.4963
H -3.4764 0.9582 4.6725
H -2.5023 2.0786 3.7153
H -2.3483 2.0446 5.4775
H -4.2299 -3.9585 4.7048
H -4.1223 -3.6821 2.9616
H -4.9796 -2.5303 3.9886
H -1.7919 -4.2271 4.7125
H -0.7176 -2.8697 4.3865
H -1.4968 -3.7201 3.0425
C 2.9281 -2.7226 4.5526
C 3.5918 -3.6421 3.4756
N 2.093 -1.6847 3.9604
H 3.7125 -2.2016 5.1116
C 2.0734 -3.5258 5.5494
N 3.4989 -2.9913 2.2064
H 3.0551 -4.6098 3.4579
C 5.0857 -3.9126 3.7689
H 1.2826 -4.0305 4.9812
C 1.4211 -2.5754 6.5532
C 2.8787 -4.5809 6.3033
H 5.1777 -4.1554 4.8314
C 5.947 -2.6882 3.4682
C 5.5724 -5.1081 2.9522
H 3.7012 -4.1162 6.843
H 3.2827 -5.3362 5.6346
H 2.2381 -5.0807 7.027
H 2.1809 -2.1213 7.185
H 0.7221 -3.1171 7.1863
H 0.8907 -1.7825 6.0355
H 6.6236 -5.3005 3.1543
H 5.4584 -4.911 1.8876
H 5.0068 -6.0044 3.2004
H 6.9776 -2.8784 3.7595
H 5.5912 -1.8167 4.0112
H 5.9191 -2.464 2.4051
C -0.6484 -5.8863 -4.1902
C 0.7347 -5.3773 -4.6772
N -1.416 -4.7205 -3.8683
H -0.4666 -6.5008 -3.2915
C -1.4266 -6.7195 -5.2243
N 1.3497 -4.7601 -3.5424
H 0.558 -4.6432 -5.4834
C 1.666 -6.4856 -5.207
H -0.8331 -7.6047 -5.4725
C -1.7102 -5.9257 -6.4959
C -2.7388 -7.188 -4.5947
H 1.1704 -6.9705 -6.0534
C 1.9784 -7.5282 -4.1378
C 2.9607 -5.8519 -5.7168
H -2.5497 -7.7571 -3.6866
H -3.2873 -7.8206 -5.2889
H -3.357 -6.3298 -4.3411
H -2.1924 -4.9874 -6.2375
H -2.3693 -6.492 -7.1504
H -0.7936 -5.7111 -7.0392
H 3.4955 -5.3769 -4.8973
H 2.7506 -5.0991 -6.4741
H 3.6036 -6.6109 -6.1568
H 2.3629 -7.0355 -3.2492
H 2.7279 -8.2255 -4.5058
H 1.0905 -8.0943 -3.8688
C -5.3438 1.5569 -4.5754
C -5.0791 2.9294 -3.8926
N -4.9759 0.5636 -3.612
H -4.7043 1.4888 -5.472
C -6.8111 1.3537 -5.0052
N -3.7225 2.8872 -3.4279
H -5.7773 3.0047 -3.042
C -5.273 4.1463 -4.8123
H -7.0857 2.1832 -5.6644
C -7.7639 1.3207 -3.8134
C -6.9269 0.0547 -5.8031
H -6.3064 4.1448 -5.1739
C -4.3206 4.1226 -6.0045
C -5.0548 5.4186 -3.9928
H -6.6722 -0.7974 -5.1763
H -6.2572 0.0659 -6.6609
H -7.9442 -0.0752 -6.1652
H -8.7627 1.0447 -4.1445
H -7.8254 2.2923 -3.3305
H -7.419 0.5892 -3.0876
H -5.2271 6.3003 -4.6057
H -4.0341 5.4469 -3.6184
H -5.7344 5.4522 -3.1435
H -4.585 3.3348 -6.7052
H -3.3059 3.9561 -5.6546
H -4.3608 5.0724 -6.5333
C 4.7891 2.1516 -2.8409
C 3.6597 3.1854 -3.0944
N 4.1817 0.8579 -2.7532
H 5.2716 2.4201 -1.8853
C 5.855 2.1421 -3.9531
N 2.5436 2.82 -2.2768
H 3.3914 3.1531 -4.1646
C 4.095 4.6269 -2.7468
H 6.1411 3.1785 -4.1627
C 5.3369 1.5003 -5.2374
C 7.0893 1.3886 -3.4588
H 5.0896 4.7893 -3.1757
C 4.161 4.8608 -1.2397
C 3.126 5.6212 -3.3844
H 7.5004 1.8597 -2.5681
H 7.8597 1.3758 -4.2263
H 6.8245 0.3615 -3.2163
H 5.01 0.4851 -5.0329
H 6.1264 1.476 -5.9852
H 4.498 2.0565 -5.6468
H 3.105 5.5042 -4.4662
H 3.428 6.6409 -3.1565
H 2.1201 5.4668 -2.9984
H 4.8845 4.201 -0.769
H 3.188 4.6762 -0.7923
H 4.4554 5.8882 -1.037
H 1.3676 -2.1212 3.3966
H 2.6604 -1.1306 3.3266
H 0.341 0.0522 1.35

