%chk=_3_alde1_6_ami3_1_opt_gas_mp2.chk
%mem=60000mb
%nprocshared=32

#P MP2/aug-cc-pVDZ SP SCF=(YQC,MaxCycle=900) int=(Grid=Superfinegrid)  

_3_alde1_6_ami3_1_opt_gas_mp2

0 1
C -4.2028 -0.7465 -0.1872
C -5.0591 -0.3318 0.9818
C -3.216 -1.7105 -0.0464
C -2.4341 -2.0884 -1.1366
H -3.0927 -2.1904 0.9124
C -2.6132 -1.4456 -2.3589
C -3.6002 -0.4797 -2.5118
H -1.9939 -1.7442 -3.1907
C -4.4028 -0.1467 -1.4209
C -3.7822 0.1673 -3.8029
H -5.1826 0.5863 -1.5533
C -1.5067 -3.2056 -1.0244
H -2.9169 0.1095 -4.4827
H -1.3631 -3.6199 -0.014
C 3.9293 -1.483 1.3463
C 4.3869 -2.1332 2.6329
C 4.2222 -0.1564 1.0618
C 3.8592 0.404 -0.1615
H 4.7533 0.4311 1.7959
C 3.1735 -0.3679 -1.0946
C 2.8464 -1.6884 -0.8061
H 2.9001 0.0819 -2.0369
C 3.2315 -2.2384 0.4175
C 2.145 -2.513 -1.7806
H 2.9834 -3.2686 0.6196
C 4.2137 1.7877 -0.4515
H 1.8726 -2.0232 -2.7275
H 4.3612 2.4344 0.4287
C -1.2058 2.9168 -0.2001
C -1.3017 2.577 1.2662
C -2.3618 2.8905 -0.9691
C -2.3051 3.1238 -2.3413
H -3.3107 2.6735 -0.4989
C -1.0725 3.3618 -2.9448
C 0.0842 3.4106 -2.1774
H -1.0445 3.5238 -4.0116
C 0.0094 3.1944 -0.8004
C 1.3793 3.637 -2.8038
H 0.9113 3.2397 -0.2123
C -3.5327 3.076 -3.1151
H 1.4388 3.3976 -3.8782
H -4.4472 2.9192 -2.5245
C -4.4854 -0.4939 3.2414
C -4.9474 0.9294 2.8857
N -4.9613 -1.2872 2.114
H -3.3867 -0.5125 3.2009
C -4.939 -0.8696 4.6374
N -4.6672 1.0013 1.4595
H -6.0411 0.9845 2.9981
C -4.3047 1.9463 3.8052
C -4.3295 0.1491 5.6059
C -4.7017 1.5893 5.2413
C 6.523 -1.5501 3.2693
C 6.4587 -3.0812 3.1357
N 5.1282 -1.1864 3.4776
H 6.8169 -1.1275 2.2977
C 7.5414 -1.151 4.3165
N 5.2603 -3.2963 2.3379
H 6.2592 -3.5107 4.1298
C 7.7788 -3.6191 2.6224
C 8.8989 -1.7022 3.8676
C 8.862 -3.2146 3.6279
C 0.5195 1.6354 2.3718
C -0.6992 0.7078 2.509
N -0.0735 2.9127 2.0021
H 1.1259 1.2954 1.5193
C 1.3524 1.5759 3.6362
N -1.5684 1.1238 1.4172
H -1.2234 0.9658 3.4432
C -0.2505 -0.7362 2.5843
C 1.7978 0.1233 3.83
C 0.6268 -0.8643 3.8344
C -0.1626 -4.885 -1.9627
C 1.2453 -4.5561 -2.5025
N -0.966 -3.7069 -2.0472
H -0.0581 -5.2511 -0.9254
C -0.8341 -5.9513 -2.836
N 1.8996 -3.726 -1.5425
H 1.1239 -4.0554 -3.4795
C 2.0782 -5.8326 -2.6514
C 0.0182 -7.208 -2.9485
C 1.3826 -6.8614 -3.5322
C -4.9041 1.4584 -5.3707
C -4.8128 2.9736 -5.0342
N -4.8534 0.7466 -4.1348
H -4.0467 1.2102 -6.0231
C -6.2174 1.181 -6.0986
N -3.5632 3.1895 -4.3739
H -5.667 3.2084 -4.3757
C -4.8944 3.7895 -6.3204
C -6.3118 2.0096 -7.375
C -6.1951 3.4981 -7.0606
C 4.6982 3.5825 -1.8472
C 3.6423 4.1925 -2.787
N 4.3654 2.2085 -1.6291
H 4.6872 4.154 -0.9011
C 6.0797 3.6961 -2.4954
N 2.3688 4.0615 -2.1503
H 3.6711 3.6533 -3.7511
C 3.9743 5.6676 -3.0273
C 6.4184 5.1581 -2.7658
C 5.3581 5.8034 -3.6535
H 4.8863 -1.3288 4.4535
H 3.5063 -2.501 3.1776
H 5.4951 -3.3023 1.349
H -1.3001 0.6394 0.5628
H -0.2961 3.447 2.8352
H -2.1552 3.1204 1.6974
H -3.6568 1.1068 1.3373
H -5.8738 -1.68 2.319
H -6.1049 -0.2658 0.6419
H -0.4896 -7.9379 -3.5823
H 0.1481 -7.6527 -1.9593
H 2.0007 -7.7585 -3.6059
H 1.2552 -6.4564 -4.5388
H -1.8102 -6.1872 -2.4065
H -1.0 -5.5219 -3.8257
H 3.0513 -5.5664 -3.0696
H 2.2445 -6.2447 -1.6545
H -3.242 0.0437 5.5859
H -4.6656 -0.0633 6.6229
H -5.7813 1.7169 5.3507
H -4.2152 2.2742 5.9391
H -3.2206 1.9063 3.6909
H -4.6382 2.956 3.5599
H -4.6132 -1.8789 4.8965
H -6.0302 -0.8373 4.6972
H -6.2314 4.0783 -7.9849
H -7.0404 3.8038 -6.4395
H -4.828 4.8502 -6.0705
H -4.0371 3.5386 -6.9471
H -7.2613 1.8071 -7.8748
H -5.5067 1.7194 -8.0543
H -6.2735 0.1157 -6.3321
H -7.0439 1.4212 -5.4278
H 3.2153 6.1005 -3.6827
H 3.9349 6.1957 -2.073
H 5.5912 6.8596 -3.8037
H 5.3611 5.3169 -4.6318
H 7.397 5.2261 -3.2458
H 6.4719 5.6974 -1.8171
H 6.8238 3.25 -1.8317
H 6.0772 3.1277 -3.4271
H 9.6542 -1.4765 4.6227
H 9.1928 -1.2008 2.9425
H 9.8381 -3.5446 3.2677
H 8.6685 -3.7224 4.5758
H 7.9968 -3.1908 1.6407
H 7.7433 -4.7049 2.5213
H 7.2648 -1.5751 5.2851
H 7.5892 -0.0658 4.4205
H 0.3218 -0.9976 1.6902
H -1.1067 -1.4101 2.6519
H 2.3466 0.0334 4.7694
H 2.4801 -0.1377 3.0212
H 1.0179 -1.8811 3.9026
H 0.0074 -0.6873 4.718
H 0.7542 1.9085 4.4895
H 2.2249 2.2259 3.5582

