%chk=_3_alde1_6_ami1_2_opt_dcm_mp2.chk
%mem=60000mb
%nprocshared=32

#P MP2/aug-cc-pVDZ SP SCF=(YQC,MaxCycle=900) int=(Grid=Superfinegrid)  SCRF=(PCM,Solvent=Dichloromethane)

_3_alde1_6_ami1_2_opt_dcm_mp2

0 1
C -1.2202 -0.1559 -3.184
C -0.0295 0.0051 -4.008
C -1.6376 -1.4241 -2.7909
C -2.7747 -1.5864 -2.0053
H -1.0712 -2.2891 -3.0939
C -3.5133 -0.4679 -1.6346
C -3.1246 0.8065 -2.0426
H -4.4084 -0.5635 -1.0391
C -1.9652 0.9565 -2.7986
C -3.9233 1.9719 -1.6939
H -1.6452 1.9459 -3.0952
C -3.1767 -2.9172 -1.5681
H -3.4759 2.9477 -1.9372
H 0.2009 1.0334 -4.3259
H -3.8549 -2.9542 -0.7008
C 2.413 -2.1944 0.907
C 3.6827 -1.57 0.5646
C 1.8661 -2.0177 2.1738
C 0.6403 -2.586 2.506
H 2.3913 -1.4259 2.9051
C -0.028 -3.3626 1.5659
C 0.52 -3.5735 0.3018
H -0.9744 -3.8268 1.7977
C 1.7307 -2.9702 -0.0277
C -0.1547 -4.427 -0.6653
H 2.1494 -3.1142 -1.0143
C 0.0628 -2.3374 3.8204
H 0.2615 -4.418 -1.6845
H 4.0488 -1.7494 -0.4578
H -1.0163 -2.5337 3.9206
C 0.025 2.9845 0.9824
C 0.8372 3.7038 0.0114
C -1.362 2.997 0.8724
C -2.1576 2.3444 1.8085
H -1.829 3.5193 0.0544
C -1.5552 1.6797 2.8702
C -0.168 1.6744 3.0077
H -2.1453 1.1742 3.6192
C 0.6162 2.3178 2.0538
C 0.4553 1.0264 4.1526
H 1.693 2.3092 2.1513
C -3.6071 2.3622 1.659
H 1.5539 0.9588 4.1273
H 1.9117 3.7809 0.24
H -4.1604 1.5713 2.1894
C 1.4076 -1.4047 -6.5761
C 1.8137 -0.8245 -5.1972
N 0.4125 -0.4991 -7.1412
H 0.99 -2.4104 -6.3904
C 2.5805 -1.5503 -7.565
N 0.6779 -0.9838 -4.3411
H 2.0544 0.242 -5.3542
C 3.0156 -1.5211 -4.5293
H 3.3294 -2.2021 -7.1059
C 3.2148 -0.2007 -7.89
C 2.1179 -2.2336 -8.8539
H 3.8738 -1.457 -5.2042
C 2.7176 -2.9872 -4.2263
C 3.3797 -0.7799 -3.2431
H 1.4844 -1.5717 -9.439
H 1.5661 -3.1457 -8.6332
H 2.9797 -2.4967 -9.4633
H 3.9425 -0.3112 -8.6907
H 3.7221 0.2131 -7.0226
H 2.443 0.4955 -8.2057
H 2.5517 -0.8105 -2.5375
H 3.6143 0.2621 -3.45
H 4.2531 -1.2389 -2.7835
H 1.7971 -3.0583 -3.6534
H 3.5323 -3.4261 -3.6528
H 2.6008 -3.5606 -5.142
C 6.6349 -0.6697 2.0945
C 5.546 -0.237 1.0605
N 6.1032 -1.1258 3.3663
H 7.2514 0.2107 2.3175
C 7.592 -1.7535 1.554
N 4.3115 -0.8667 1.399
H 5.8789 -0.5176 0.045
C 5.3375 1.2962 1.0494
H 8.1632 -2.087 2.4271
C 8.5713 -1.1756 0.5343
C 6.8763 -2.9708 0.9708
H 6.3178 1.7513 0.865
C 4.7887 1.8155 2.3757
C 4.4039 1.6873 -0.0954
H 6.134 -3.36 1.6633
H 7.598 -3.7597 0.7699
H 6.379 -2.7261 0.0353
H 8.0493 -0.803 -0.3446
H 9.2718 -1.9426 0.2117
H 9.138 -0.355 0.9683
H 3.4127 1.263 0.0561
H 4.7865 1.3274 -1.0485
H 4.3137 2.7703 -0.1512
H 4.5524 2.8753 2.2933
H 5.5161 1.6968 3.1748
H 3.8843 1.2706 2.6363
C 0.3474 6.3312 -2.2118
C 1.0991 4.9955 -1.9286
N -0.9624 6.1273 -2.8006
H 0.9563 6.8865 -2.9342
C 0.1944 7.2651 -0.9853
N 0.3175 4.2347 -1.0083
H 2.1057 5.2214 -1.5345
C 1.2896 4.1519 -3.2147
H -0.0866 8.2369 -1.4076
C 1.5079 7.4445 -0.2268
C -0.9228 6.8565 -0.0268
H 0.301 3.8239 -3.5551
C 2.1192 2.9085 -2.8975
C 1.9737 4.9358 -4.3334
H -0.9557 7.5543 0.8076
H -0.7635 5.8572 0.366
H -1.8831 6.8869 -0.5328
H 1.4189 8.2714 0.4743
H 2.3261 7.6642 -0.91
H 1.7523 6.5503 0.3417
H 2.9037 5.3734 -3.9757
H 1.3432 5.7313 -4.7218
H 2.2076 4.2652 -5.1581
H 3.1076 3.193 -2.5414
H 2.2419 2.3043 -3.7938
H 1.6393 2.2958 -2.137
C -3.1221 -5.2507 -1.6641
C -1.7786 -5.9548 -1.3416
N -2.7647 -3.9535 -2.1518
H -3.705 -5.176 -0.7293
C -3.9766 -5.9807 -2.7199
N -1.1356 -5.1505 -0.3452
H -1.1876 -5.9692 -2.2737
C -1.9209 -7.3943 -0.8144
H -4.1956 -6.9838 -2.3409
C -3.2587 -6.0922 -4.0618
C -5.3035 -5.2413 -2.8938
H -2.4221 -7.9915 -1.5826
C -2.7277 -7.4527 0.4792
C -0.527 -7.9812 -0.5902
H -5.1308 -4.2439 -3.2922
H -5.8224 -5.1483 -1.9416
H -5.948 -5.7823 -3.583
H -2.4051 -6.7617 -3.9966
H -2.9121 -5.1108 -4.3738
H -3.9387 -6.4826 -4.8159
H -0.005 -7.4186 0.1806
H 0.061 -7.9404 -1.5051
H -0.5997 -9.0195 -0.2746
H -2.6878 -8.4556 0.8987
H -3.7702 -7.1994 0.305
H -2.3112 -6.7537 1.199
C -5.773 3.0559 -0.7907
C -5.5894 3.1994 0.7444
N -5.0632 1.8685 -1.1656
H -5.3153 3.9462 -1.2546
C -7.2366 2.9444 -1.2517
N -4.1753 3.2368 0.9547
H -6.0396 2.316 1.23
C -6.2325 4.4704 1.3343
H -7.7633 3.8524 -0.9416
C -7.9347 1.7256 -0.6555
C -7.2686 2.872 -2.7786
H -7.3011 4.4486 1.0981
C -5.6136 5.7445 0.766
C -6.0825 4.4483 2.8556
H -6.758 1.9738 -3.1187
H -6.7744 3.7371 -3.2164
H -8.2956 2.8458 -3.1357
H -7.3346 0.8384 -0.837
H -8.9104 1.5915 -1.1174
H -8.0803 1.8398 0.4156
H -6.5882 5.3045 3.2961
H -5.0307 4.4889 3.1308
H -6.5155 3.542 3.2748
H -4.5327 5.7058 0.8708
H -5.9889 6.6116 1.3051
H -5.8605 5.8679 -0.285
C 0.172 -1.5785 6.0287
C 0.4317 -0.0596 6.2157
N 0.7677 -1.9087 4.7713
H -0.9203 -1.7398 6.0064
C 0.7813 -2.4616 7.1355
N -0.2237 0.596 5.1233
H 1.5239 0.0896 6.1643
C -0.0945 0.5204 7.5408
H 0.339 -2.1599 8.0901
C 2.2987 -2.32 7.2127
C 0.4023 -3.9203 6.8783
H 0.4082 0.0034 8.3641
C -1.604 0.3483 7.6807
C 0.2736 2.0026 7.614
H 0.7641 -4.5513 7.6868
H 0.8438 -4.2653 5.9458
H -0.6782 -4.0338 6.8122
H 2.7059 -3.0553 7.9033
H 2.5847 -1.332 7.5635
H 2.7329 -2.4828 6.2302
H -0.2202 2.5492 6.8136
H 1.3486 2.1388 7.513
H -0.0379 2.4235 8.5673
H -1.8718 -0.6986 7.7971
H -2.098 0.7417 6.7969
H -1.9617 0.8892 8.5541
H -1.4681 5.4573 -2.231
H -0.8776 5.7392 -3.7331
H 0.0131 -0.9048 -7.9796
H -0.3465 -0.3676 -6.4804
H 5.5317 -1.952 3.2216
H 5.4893 -0.4211 3.7575

