%chk=_3_alde1_5_ami2_2_opt_gas_pbe.chk
%mem=60000mb
%nprocshared=32

#P PBE1PBE/Def2TZVP SP SCF=(YQC,MaxCycle=900) int=(Grid=Superfinegrid) EmpiricalDispersion=GD3 

_3_alde1_5_ami2_2_opt_gas_pbe

0 1
C -4.5437 -1.1002 -0.6981
C -5.5019 -0.6158 0.2829
C -3.7612 -2.2253 -0.4569
C -2.7844 -2.618 -1.3689
H -3.9139 -2.8025 0.4402
C -2.5614 -1.8461 -2.5081
C -3.3413 -0.7223 -2.7662
H -1.7792 -2.1279 -3.2006
C -4.3466 -0.3738 -1.8685
C -3.0665 0.128 -3.921
H -4.948 0.4926 -2.0938
C -2.0129 -3.8318 -1.1347
H -2.0948 -0.0488 -4.3977
H -6.1188 0.2351 -0.0442
H -1.2934 -4.1139 -1.9198
C 3.8472 -3.3572 -1.9455
C 4.5973 -4.2457 -2.8208
C 4.2042 -2.0146 -1.8185
C 3.4848 -1.1643 -0.9871
H 5.0501 -1.6521 -2.383
C 2.3907 -1.6637 -0.2774
C 2.0369 -3.0036 -0.3763
H 1.8385 -0.9877 0.3576
C 2.7701 -3.844 -1.215
C 0.9382 -3.5452 0.4197
H 2.4809 -4.8822 -1.274
C 3.886 0.2285 -0.8602
H 0.3747 -2.8106 1.0077
H 4.2526 -5.2911 -2.8518
H 4.7985 0.5118 -1.408
C -2.7586 1.8836 1.1062
C -3.4435 1.2256 2.2136
C -3.4792 2.3538 0.0112
C -2.825 2.8481 -1.113
H -4.5553 2.2874 0.0458
C -1.4355 2.9329 -1.1107
C -0.7013 2.4994 -0.0115
H -0.9206 3.317 -1.9756
C -1.3685 1.9526 1.0827
C 0.7569 2.5654 -0.0229
H -0.7996 1.5793 1.924
C -3.5915 3.1343 -2.3153
H 1.2592 2.0374 0.7936
H -4.6852 3.0611 -2.2103
C -5.4552 0.501 3.2763
C -6.3895 -0.3932 2.4028
N -4.698 1.2611 2.3193
N -5.5816 -1.0855 1.4518
C 7.7969 -4.7856 -3.8657
C 6.3106 -4.7347 -4.3297
N 8.389 -3.4615 -3.792
N 5.5758 -3.8373 -3.5048
C -1.4543 -5.7135 0.1379
C -0.3157 -5.4441 1.1624
N -2.2002 -4.5258 -0.0982
N 0.721 -4.7864 0.4189
C -3.644 1.9828 -5.3145
C -3.8502 3.3556 -4.6025
N -3.8898 1.0081 -4.2859
N -3.0413 3.3596 -3.4285
C 3.6269 2.4166 -0.0992
C 2.7764 3.2992 -1.063
N 3.235 1.05 -0.1558
N 1.3567 3.1871 -0.9386
H 8.3728 -3.0178 -4.7043
H 7.8417 -2.8848 -3.1619
H -2.782 0.6789 2.8966
C 8.6002 -5.6192 -4.8646
C 7.875 -5.4149 -2.4733
C -4.6526 -0.3917 4.2268
C -6.3109 1.492 4.0719
H -7.1369 0.2559 1.9213
H -6.8866 -1.122 3.0454
H 4.6842 2.5658 -0.3711
H 3.4694 2.7666 0.9256
C 3.1016 2.9418 -2.5191
C 3.1289 4.7715 -0.8077
H -0.9965 -6.1229 -0.7766
H -2.1388 -6.4477 0.5698
H -4.9213 3.4735 -4.3749
H -3.5206 4.1551 -5.2687
C -4.7291 1.8028 -6.3814
C -2.2547 1.9544 -5.9573
C 0.2769 -6.7871 1.6056
C -0.8652 -4.6843 2.3733
H -4.113 -1.1481 3.6621
H -5.3329 -0.89 4.9124
H -3.9504 0.1996 4.812
H -6.8158 2.1748 3.3938
H -5.6775 2.0741 4.7377
H -7.0526 0.9617 4.6637
H -2.0673 0.9927 -6.4316
H -1.4933 2.1454 -5.205
H -2.194 2.7273 -6.7189
H -4.7142 2.6357 -7.0796
H -5.7073 1.7475 -5.9112
H -4.5579 0.8788 -6.9293
H -0.0493 -4.4012 3.0362
H -1.555 -5.3237 2.9168
H -1.4052 -3.7952 2.0589
H -0.4796 -7.4003 2.0876
H 1.0901 -6.6136 2.3063
H 0.6732 -7.3188 0.7449
H 2.5462 5.4018 -1.4736
H 4.187 4.9455 -0.9858
H 2.8932 5.0439 0.2188
H 2.8816 1.8927 -2.7061
H 4.1503 3.1316 -2.7351
H 2.4854 3.544 -3.1804
H 7.5146 -6.4403 -2.4946
H 7.2725 -4.8461 -1.7682
H 8.9061 -5.4073 -2.1321
H 8.5455 -5.1829 -5.86
H 8.2208 -6.6366 -4.9099
H 9.6417 -5.6427 -4.5565
H 5.8882 -5.7536 -4.3378
H 6.2858 -4.3331 -5.349

