%chk=_3_alde1_6_ami4_2_opt_dcm_mp2.chk
%mem=60000mb
%nprocshared=32

#P MP2/aug-cc-pVDZ SP SCF=(YQC,MaxCycle=900) int=(Grid=Superfinegrid)  SCRF=(PCM,Solvent=Dichloromethane)

_3_alde1_6_ami4_2_opt_dcm_mp2

0 1
C -2.919 -0.7776 0.4039
C -3.1744 -0.4237 1.792
C -2.1704 -1.9053 0.0604
C -1.9778 -2.2482 -1.2734
H -1.7644 -2.5217 0.8479
C -2.5063 -1.4302 -2.2713
C -3.253 -0.3041 -1.9473
H -2.3384 -1.7092 -3.3001
C -3.466 0.0086 -0.6061
C -3.7858 0.5375 -3.0094
H -4.0631 0.8757 -0.369
C -1.2615 -3.4647 -1.6376
H -3.3349 0.3828 -4.0021
H -3.8556 0.4265 1.9424
H -0.7588 -3.9972 -0.8169
C 3.3106 -1.5316 -0.1768
C 3.209 -1.878 1.2352
C 3.9596 -0.3669 -0.5797
C 3.9737 0.0095 -1.921
H 4.4479 0.256 0.1581
C 3.3184 -0.7824 -2.8633
C 2.6748 -1.952 -2.4744
H 3.3263 -0.4624 -3.894
C 2.6834 -2.3229 -1.1329
C 1.9295 -2.7644 -3.4278
H 2.179 -3.2247 -0.8278
C 4.6276 1.2473 -2.3166
H 1.7007 -2.2964 -4.3977
H 3.7414 -1.2262 1.9424
H 5.0231 1.8596 -1.4907
C 0.3249 2.984 -0.1774
C 0.7129 2.6711 1.1945
C -1.0219 3.0853 -0.5211
C -1.4036 3.3723 -1.8264
H -1.7579 2.9352 0.2538
C -0.4239 3.5245 -2.8076
C 0.9232 3.4338 -2.4774
H -0.7375 3.73 -3.8198
C 1.2915 3.1774 -1.1566
C 1.9466 3.5615 -3.5069
H 2.3434 3.114 -0.9225
C -2.8176 3.4909 -2.1418
H 1.6031 3.4106 -4.5423
H 1.7894 2.7482 1.3942
H -3.4957 3.386 -1.282
C -3.6322 -1.91 4.819
C -3.0151 -0.6841 4.1072
N -2.7584 -3.0569 4.9106
N -2.668 -1.045 2.7685
C 0.7527 -2.9798 3.2474
C 2.2644 -3.0888 2.9972
N 0.3018 -1.6319 2.9336
N 2.4917 -2.846 1.6099
C 1.5793 1.8363 3.8583
C 0.1169 2.0036 3.4057
N 2.2613 0.6828 3.2995
N -0.1577 2.3409 2.0441
C -0.5398 -5.0741 -3.1644
C 0.7079 -4.6851 -3.98
N -1.26 -3.8889 -2.8257
N 1.5531 -3.9265 -3.1212
C -5.0946 2.2469 -3.879
C -4.6661 3.6853 -3.5113
N -4.7018 1.3822 -2.8143
N -3.2497 3.7002 -3.3102
C 5.2864 2.8894 -3.8143
C 4.1416 3.8255 -4.2488
N 4.731 1.6061 -3.5215
N 3.1478 3.8146 -3.2236
H 2.3029 0.7648 2.2876
H 1.7117 -0.1555 3.4915
H -1.909 -2.8126 5.4097
H -2.4912 -3.3564 3.9791
H -0.7118 -1.5626 3.0164
H 0.5206 -1.4328 1.9601
H 3.7435 3.5058 -5.2248
H 4.5401 4.8407 -4.3367
H 5.7946 3.3324 -2.943
H 5.9925 2.7839 -4.6415
H 2.5838 -4.1101 3.2236
H 2.8038 -2.3817 3.6468
H 0.5491 -3.1741 4.3043
H 0.2501 -3.7547 2.6476
H 0.4089 -4.138 -4.8883
H 1.234 -5.6018 -4.2621
H -0.2135 -5.6392 -2.2778
H -1.1898 -5.6958 -3.7857
H -4.5319 -2.2163 4.2783
H -3.9205 -1.6142 5.8312
H -2.094 -0.4075 4.6328
H -3.7172 0.1641 4.1492
H 1.5828 1.7237 4.9463
H 2.154 2.736 3.6172
H -0.3703 2.7752 4.0133
H -0.4199 1.0638 3.5848
H -5.2179 3.9876 -2.609
H -4.9088 4.3526 -4.3405
H -4.6376 1.9671 -4.8416
H -6.1837 2.2214 -3.9646

