%chk=_4_alde1_6_ami1_1_opt_gas_mp2.chk
%mem=60000mb
%nprocshared=32

#P MP2/aug-cc-pVDZ SP SCF=(YQC,MaxCycle=900) int=(Grid=Superfinegrid)  

_4_alde1_6_ami1_1_opt_gas_mp2

0 1
C -0.9643 -0.9572 3.9382
C -1.9845 -1.9946 4.0071
C -1.3244 0.39 3.9231
C -0.3521 1.3829 3.9137
H -2.3743 0.6401 3.937
C 0.9946 1.021 3.9067
C 1.3684 -0.3174 3.9218
H 1.7361 1.8054 3.9075
C 0.3817 -1.3028 3.9311
C 2.7779 -0.6813 3.9735
H 0.6903 -2.3369 3.9509
C -0.7412 2.7859 3.9572
H 3.4913 0.1299 3.7597
H -1.6389 -3.0217 3.8117
H -1.8036 2.9958 3.7574
C -3.7955 -1.7153 -0.0081
C -4.4378 -1.6105 1.2951
C -3.026 -2.8328 -0.3305
C -2.4581 -2.9616 -1.5922
H -2.8988 -3.6006 0.4175
C -2.6534 -1.9536 -2.536
C -3.4178 -0.8344 -2.229
H -2.2116 -2.0741 -3.5134
C -3.9815 -0.7189 -0.9587
C -3.6626 0.1828 -3.2425
H -4.5788 0.1533 -0.7404
C -1.7056 -4.1606 -1.9355
H -3.0282 0.1277 -4.1409
H -4.8529 -0.6223 1.5476
H -1.4232 -4.8084 -1.0909
C 3.384 -2.4298 -0.0338
C 3.6341 -3.0247 1.272
C 3.9616 -1.2081 -0.3779
C 3.77 -0.6652 -1.6428
H 4.5739 -0.706 0.3557
C 2.981 -1.3485 -2.5676
C 2.399 -2.5669 -2.2389
H 2.8496 -0.9161 -3.5479
C 2.6001 -3.0993 -0.9658
C 1.6254 -3.2987 -3.2328
H 2.1472 -4.0504 -0.7306
C 4.4267 0.5823 -2.0088
H 1.3418 -2.7317 -4.1333
H 2.9905 -3.8763 1.5428
H 4.8601 1.1587 -1.1765
C 0.4105 4.1458 -0.0815
C 0.8191 4.673 1.2134
C -0.9412 4.0317 -0.4053
C -1.3333 3.5818 -1.6603
H -1.6717 4.3183 0.3359
C -0.3602 3.2308 -2.5955
C 0.9905 3.3393 -2.2871
H -0.6829 2.8911 -3.5679
C 1.3689 3.7924 -1.0236
C 1.9965 3.0255 -3.2926
H 2.4223 3.878 -0.8042
C -2.747 3.5228 -2.0062
H 1.6339 2.4884 -4.183
H 1.8823 4.5445 1.4701
H -3.4515 3.6177 -1.1651
C -4.149 -2.7757 4.406
C -5.2116 -2.4772 3.3209
N -3.1772 -1.7287 4.3122
H -3.6986 -3.7571 4.1742
C -4.7012 -2.8112 5.8458
N -4.5431 -2.6045 2.0613
H -5.5704 -1.4445 3.4771
C -6.4237 -3.431 3.3368
H -5.4604 -3.5976 5.898
C -5.3236 -1.4785 6.2515
C -3.5743 -3.1799 6.8109
H -6.9107 -3.3435 4.3128
C -6.0118 -4.8817 3.1045
C -7.4265 -2.9926 2.2692
H -2.808 -2.4078 6.8093
H -3.114 -4.1238 6.5253
H -3.9628 -3.2801 7.8219
H -5.5926 -1.4988 7.3055
H -6.2219 -1.2723 5.6756
H -4.6093 -0.6769 6.0863
H -6.9894 -3.0897 1.2779
H -7.7197 -1.9549 2.4172
H -8.3199 -3.6111 2.3159
H -6.8955 -5.5078 3.0016
H -5.4216 -5.2608 3.9346
H -5.4228 -4.9525 2.1943
C 4.5432 -2.1601 4.3614
C 4.8015 -3.2399 3.2831
N 3.149 -1.8439 4.2846
H 5.1637 -1.2812 4.1121
C 4.8712 -2.6062 5.8011
N 4.5583 -2.6103 2.0206
H 4.0901 -4.0663 3.458
C 6.2345 -3.8109 3.2838
H 5.9327 -2.869 5.8406
C 4.0355 -3.8084 6.2306
C 4.6396 -1.4368 6.7583
H 6.417 -4.2666 4.2617
C 7.2799 -2.7298 3.0257
C 6.3422 -4.9087 2.2252
H 4.9355 -1.7129 7.7678
H 3.5876 -1.1603 6.7691
H 5.2219 -0.5685 6.4557
H 4.2027 -4.0206 7.2845
H 4.2988 -4.6948 5.6596
H 2.9816 -3.5932 6.0782
H 6.1929 -4.4914 1.2318
H 5.5934 -5.6809 2.3915
H 7.3257 -5.3715 2.2622
H 8.2629 -3.1819 2.9127
H 7.3244 -2.0212 3.8485
H 7.0326 -2.1934 2.1139
C -0.3384 5.0579 4.3165
C 0.4507 5.8115 3.2188
N 0.0844 3.6919 4.2467
H -1.4136 5.1528 4.0825
C -0.0947 5.5791 5.7477
N 0.0088 5.2733 1.9679
H 1.5248 5.6111 3.3797
C 0.2272 7.3376 3.2078
H -0.3979 6.63 5.7816
C 1.3707 5.4613 6.1563
C -0.9765 4.8027 6.7259
H 0.5451 7.7334 4.1773
C -1.2358 7.6987 2.9684
C 1.1074 7.9701 2.1295
H -2.0241 4.8692 6.4385
H -0.8704 5.2069 7.7301
H -0.6892 3.7537 6.7427
H 1.9975 6.1274 5.5693
H 1.7097 4.4398 6.0085
H 1.4866 5.7224 7.2061
H 1.016 9.0535 2.1573
H 0.8058 7.6222 1.144
H 2.1531 7.7102 2.2825
H -1.5901 7.207 2.0668
H -1.3385 8.7749 2.8462
H -1.8588 7.3907 3.8039
C -0.7244 -5.6553 -3.4378
C 0.6072 -5.2162 -4.0933
N -1.4349 -4.4509 -3.1307
H -0.4777 -6.2157 -2.5188
C -1.6144 -6.5403 -4.3343
N 1.3387 -4.5157 -3.0815
H 0.3617 -4.5495 -4.9388
C 1.4746 -6.3801 -4.6152
H -1.0513 -7.4451 -4.5828
C -2.0186 -5.8259 -5.6206
C -2.8599 -6.9605 -3.5535
H 0.8955 -6.9225 -5.3688
C 1.8757 -7.3387 -3.498
C 2.7218 -5.8158 -5.2959
H -3.4638 -6.0895 -3.3087
H -2.5848 -7.4614 -2.6273
H -3.4628 -7.6442 -4.1469
H -2.4713 -4.8683 -5.3793
H -2.7393 -6.4277 -6.17
H -1.1586 -5.6554 -6.2628
H 3.3082 -6.6208 -5.7332
H 3.3411 -5.2894 -4.573
H 2.4491 -5.121 -6.088
H 2.5817 -8.0755 -3.8752
H 1.0116 -7.8669 -3.1037
H 2.3451 -6.7828 -2.6912
C -4.8119 2.0066 -4.1403
C -4.5281 3.392 -3.511
N -4.5731 1.0426 -3.1091
H -4.1098 1.8697 -4.9817
C -6.2522 1.827 -4.6622
N -3.1306 3.4112 -3.2006
H -5.1392 3.4765 -2.595
C -4.8472 4.5874 -4.4321
H -6.4308 2.585 -5.431
C -7.2857 1.9803 -3.5501
C -6.3853 0.4519 -5.3168
H -5.9117 4.5474 -4.6823
C -4.0235 4.5547 -5.716
C -4.5899 5.8912 -3.6763
H -5.6453 0.3256 -6.1048
H -7.3746 0.3379 -5.7543
H -6.2406 -0.3336 -4.5783
H -7.3122 3.0001 -3.1756
H -7.0406 1.3116 -2.7297
H -8.2758 1.7297 -3.9249
H -4.8791 6.7434 -4.2872
H -3.5342 5.9834 -3.4308
H -5.1634 5.9218 -2.7518
H -2.9683 4.4724 -5.4705
H -4.1826 5.469 -6.2838
H -4.3046 3.7124 -6.3425
C 5.2082 2.1642 -3.5385
C 4.153 3.0931 -4.1859
N 4.5244 0.9503 -3.2093
H 5.5853 2.666 -2.6298
C 6.4051 1.8265 -4.4511
N 3.1961 3.386 -3.1621
H 3.6852 2.5404 -5.0197
C 4.7204 4.4211 -4.7278
H 6.9042 2.7637 -4.7157
C 5.9674 1.1086 -5.7243
C 7.4029 0.9635 -3.6783
H 5.4678 4.1837 -5.4911
C 5.368 5.2566 -3.6275
C 3.5985 5.2146 -5.3981
H 6.9534 0.0078 -3.4181
H 7.7142 1.4599 -2.7612
H 8.2868 0.777 -4.284
H 5.367 0.2408 -5.4659
H 6.8398 0.7789 -6.2845
H 5.3808 1.7633 -6.3633
H 2.8445 5.4947 -4.6658
H 3.1204 4.6248 -6.1778
H 3.9965 6.1207 -5.8493
H 6.2632 4.7751 -3.2431
H 4.6646 5.3924 -2.8107
H 5.6477 6.2331 -4.0172

