%chk=_4_alde1_6_ami3_1_opt_cfm_pbe.chk
%mem=60000mb
%nprocshared=32

#P PBE1PBE/Def2TZVP SP SCF=(YQC,MaxCycle=900) int=(Grid=Superfinegrid) EmpiricalDispersion=GD3 SCRF=(PCM,Solvent=Chloroform)

_4_alde1_6_ami3_1_opt_cfm_pbe

0 1
C -1.3617 -0.3363 4.0772
C -2.7717 -0.698 4.1104
C -0.985 1.0014 4.069
C 0.3628 1.3606 4.0764
H -1.7234 1.7885 4.0711
C 1.333 0.3656 4.0819
C 0.9701 -0.9813 4.0902
H 2.3838 0.6116 4.0942
C -0.3767 -1.324 4.0827
C 1.9883 -2.0211 4.137
H -0.6892 -2.357 4.0953
C 0.754 2.7628 4.1088
H 1.6278 -3.0508 3.9877
H -3.4816 0.1284 3.9507
H 1.8262 2.964 3.9596
C -3.5094 -2.4793 -0.0849
C -3.7494 -3.0691 1.2245
C -2.7304 -3.1513 -1.0193
C -2.525 -2.616 -2.2909
H -2.2809 -4.1048 -0.7878
C -3.0996 -1.3931 -2.6161
C -3.8839 -0.707 -1.6887
H -2.9645 -0.9559 -3.5935
C -4.0799 -1.2528 -0.4257
C -4.5174 0.5543 -2.0464
H -4.6866 -0.7492 0.3113
C -1.7421 -3.3422 -3.2807
H -4.9882 1.1055 -1.2176
H -3.1434 -3.9557 1.4677
H -1.4986 -2.7868 -4.1997
C 3.9091 -1.8151 -0.0566
C 4.5371 -1.7139 1.2531
C 4.1037 -0.8146 -1.0014
C 3.5401 -0.918 -2.2731
H 4.7043 0.0538 -0.778
C 2.7691 -2.0305 -2.5881
C 2.5649 -3.0427 -1.6502
H 2.325 -2.1426 -3.5653
C 3.1329 -2.926 -0.3871
C 1.7901 -4.2259 -1.9967
H 2.9984 -3.6953 0.3579
C 3.7799 0.1125 -3.2735
H 1.5466 -4.9002 -1.1611
H 5.0016 -0.7433 1.4868
H 3.1792 0.036 -4.1931
C -0.376 4.2769 -0.1037
C -0.7809 4.7842 1.1997
C -1.3373 3.9348 -1.0472
C -0.9626 3.4847 -2.3132
H -2.3902 4.0229 -0.8274
C 0.3871 3.37 -2.6235
C 1.3634 3.7095 -1.6867
H 0.7087 3.0308 -3.5963
C 0.9751 4.1566 -0.4294
C 2.7763 3.6265 -2.0289
H 1.7065 4.433 0.3145
C -1.9723 3.1661 -3.3128
H 3.48 3.7615 -1.1928
H -1.8542 4.703 1.4319
H -1.6033 2.674 -4.226
C -4.5443 -2.1913 4.3828
C -4.8392 -3.2296 3.2814
N -3.1507 -1.8786 4.3373
N -4.6179 -2.6088 2.0135
C -6.3021 -3.6737 3.3641
H -4.1721 -4.0966 3.4387
C -6.6207 -4.2546 4.7363
H -6.4896 -4.4137 2.5831
H -6.9361 -2.8081 3.1644
C -6.3269 -3.23 5.8268
H -6.0128 -5.1468 4.9036
H -7.6707 -4.5516 4.7737
C -4.8717 -2.7837 5.7562
H -6.5311 -3.6594 6.8097
H -6.9798 -2.3639 5.6961
H -4.208 -3.632 5.9318
H -4.6651 -2.0324 6.5214
H -5.1736 -1.3025 4.195
C 4.1671 -2.8067 4.4228
C 5.2162 -2.5551 3.3208
N 3.1997 -1.7567 4.3637
N 4.5706 -2.6876 2.0529
C 6.3318 -3.5993 3.4174
H 5.6333 -1.5424 3.4681
C 6.9912 -3.5699 4.7907
H 7.0681 -3.4003 2.6357
H 5.8994 -4.5832 3.2274
C 5.9546 -3.8157 5.8818
H 7.4598 -2.5957 4.9484
H 7.7732 -4.3305 4.8381
C 4.8409 -2.7793 5.7974
H 6.4265 -3.7672 6.8652
H 5.5311 -4.8154 5.7611
H 5.2435 -1.7785 5.963
H 4.0852 -2.9674 6.5631
H 3.7123 -3.7981 4.2448
C 0.3435 5.0454 4.369
C -0.397 5.8157 3.2571
N -0.0814 3.6818 4.3239
N 0.0435 5.3093 1.9956
C -0.0517 7.3051 3.3382
H -1.4829 5.6715 3.4036
C -0.41 7.8761 4.7047
H -0.5909 7.8344 2.5497
H 1.0169 7.4212 3.1492
C 0.3194 7.1136 5.8056
H -1.4883 7.7958 4.861
H -0.1431 8.9342 4.7411
C -0.0202 5.6299 5.7366
H 0.0392 7.5085 6.7842
H 1.3971 7.2461 5.6856
H -1.0885 5.4793 5.9018
H 0.5194 5.0782 6.5095
H 1.4298 5.1457 4.1921
C -0.6426 -5.2277 -4.1067
C 0.7047 -5.6543 -3.4895
N -1.3931 -4.5404 -3.1037
N 1.4478 -4.4724 -3.1845
C 1.4977 -6.4886 -4.4991
H 0.4943 -6.2547 -2.5859
C 0.706 -7.7144 -4.9377
H 2.4433 -6.7881 -4.042
H 1.7268 -5.8592 -5.3608
C -0.6279 -7.2943 -5.5457
H 0.5242 -8.3581 -4.074
H 1.2869 -8.2846 -5.6655
C -1.4276 -6.4663 -4.5474
H -1.2031 -8.1764 -5.834
H -0.4459 -6.7026 -6.4459
H -1.6568 -7.0613 -3.6617
H -2.3732 -6.1444 -4.9889
H -0.4325 -4.5835 -4.9797
C -5.1958 2.203 -3.5526
C -4.1459 3.154 -4.1623
N -4.5473 0.9697 -3.2361
N -3.1862 3.464 -3.1502
C -4.821 4.4515 -4.6154
H -3.6838 2.6464 -5.0284
C -5.9272 4.1692 -5.6245
H -4.0645 5.1076 -5.0513
H -5.231 4.951 -3.7359
C -6.9647 3.2267 -5.0239
H -5.4963 3.7122 -6.5183
H -6.4002 5.1074 -5.9216
C -6.3041 1.9298 -4.5731
H -7.7412 3.0061 -5.7591
H -7.4404 3.7095 -4.1671
H -5.8645 1.4132 -5.4281
H -7.0412 1.2626 -4.1212
H -5.6201 2.6889 -2.6553
C 4.8653 1.9985 -4.1169
C 4.5597 3.385 -3.5148
N 4.6428 1.0155 -3.1041
N 3.1639 3.4408 -3.2138
C 4.8883 4.4784 -4.535
H 5.1827 3.5123 -2.6109
C 6.3467 4.4009 -4.9693
H 4.6739 5.4517 -4.0884
H 4.2308 4.3532 -5.397
C 6.6512 3.0295 -5.5624
H 6.9931 4.5742 -4.1057
H 6.552 5.1815 -5.7046
C 6.3314 1.9333 -4.5535
H 7.7034 2.9693 -5.8476
H 6.0499 2.882 -6.4625
H 6.9592 2.0413 -3.6673
H 6.5264 0.9489 -4.9844
H 4.2043 1.8494 -4.9899

