%chk=_4_alde1_6_ami4_1_opt_gas_mp2.chk
%mem=60000mb
%nprocshared=32

#P MP2/aug-cc-pVDZ SP SCF=(YQC,MaxCycle=900) int=(Grid=Superfinegrid)  

_4_alde1_6_ami4_1_opt_gas_mp2

0 1
C -0.9699 -0.9966 4.1534
C -1.9854 -2.0401 4.1754
C -1.3361 0.3495 4.152
C -0.3682 1.347 4.1537
H -2.3875 0.5935 4.1603
C 0.9807 0.9911 4.1485
C 1.3605 -0.3458 4.1499
H 1.7176 1.7797 4.154
C 0.3779 -1.336 4.1483
C 2.7719 -0.7041 4.168
H 0.6923 -2.3685 4.1535
C -0.764 2.7482 4.1758
H 3.478 0.1277 4.0203
H -1.6178 -3.0675 4.0284
H -1.8378 2.9437 4.0315
C -3.9696 -1.8479 -0.1116
C -4.5875 -1.7449 1.203
C -3.1935 -2.958 -0.4455
C -2.6213 -3.0686 -1.7073
H -3.0592 -3.73 0.2967
C -2.8227 -2.052 -2.6412
C -3.5934 -0.9401 -2.3227
H -2.3738 -2.1576 -3.617
C -4.1615 -0.8429 -1.0522
C -3.8152 0.1032 -3.3142
H -4.7602 0.0259 -0.8249
C -1.8327 -4.2437 -2.0509
H -3.2161 0.0229 -4.2344
H -5.0587 -0.7773 1.4348
H -1.6015 -4.9243 -1.2169
C 3.5836 -2.5171 -0.1227
C 3.8067 -3.1053 1.1906
C 4.1554 -1.289 -0.4557
C 3.9622 -0.7361 -1.7161
H 4.7581 -0.7876 0.2861
C 3.1809 -1.4177 -2.6495
C 2.6049 -2.642 -2.3319
H 3.0456 -0.9745 -3.6243
C 2.8076 -3.1847 -1.0628
C 1.8108 -3.3543 -3.3233
H 2.3556 -4.1383 -0.8362
C 4.5841 0.5354 -2.0587
H 1.5793 -2.7939 -4.2423
H 3.2048 -3.9974 1.4231
H 5.0598 1.0744 -1.2248
C 0.385 4.3637 -0.1145
C 0.7863 4.8498 1.1983
C -0.9653 4.2456 -0.4446
C -1.3504 3.8031 -1.7046
H -1.6991 4.5163 0.2991
C -0.3716 3.468 -2.6405
C 0.9775 3.5806 -2.3258
H -0.69 3.1303 -3.6148
C 1.349 4.0263 -1.0571
C 1.989 3.2498 -3.3198
H 2.4013 4.1112 -0.8327
C -2.7631 3.7063 -2.0445
H 1.617 2.7704 -4.2386
H 1.8605 4.7745 1.4277
H -3.4663 3.8468 -1.209
C -4.1667 -2.8338 4.3843
C -5.214 -2.568 3.2915
N -3.2028 -1.7817 4.3768
N -4.6028 -2.7132 2.0103
H -5.6527 -1.5689 3.4438
H -5.9975 -3.3274 3.3734
H -3.716 -3.8261 4.2222
H -4.6702 -2.8156 5.3556
C 4.5493 -2.1981 4.3705
C 4.8384 -3.2379 3.2764
N 3.1565 -1.8881 4.367
N 4.6551 -2.6353 1.9961
H 4.1922 -4.117 3.4304
H 5.8878 -3.5378 3.3549
H 5.1837 -1.3123 4.2069
H 4.7876 -2.644 5.341
C -0.3596 5.0343 4.3819
C 0.3915 5.8071 3.2862
N 0.0692 3.6733 4.3744
N -0.0428 5.3484 2.0067
H 1.4765 5.6879 3.4362
H 0.1255 6.8654 3.3673
H -1.4447 5.1402 4.2226
H -0.0893 5.4621 5.3521
C -0.6859 -5.6365 -3.5262
C 0.6544 -5.2049 -4.1419
N -1.4632 -4.4762 -3.2336
N 1.4371 -4.5455 -3.1475
H 0.4626 -4.5714 -5.0228
H 1.1974 -6.1037 -4.4495
H -0.494 -6.2568 -2.636
H -1.2332 -6.2238 -4.2697
C -4.8418 2.0296 -4.1311
C -4.5457 3.4064 -3.5158
N -4.6596 1.0224 -3.1369
N -3.1517 3.501 -3.2261
H -5.1771 3.5496 -2.6243
H -4.7831 4.1739 -4.2588
H -4.1985 1.8796 -5.0129
H -5.8921 2.0078 -4.4371
C 5.213 2.228 -3.5321
C 4.1677 3.174 -4.1439
N 4.5978 0.974 -3.2406
N 3.2079 3.5211 -3.1466
H 3.7127 2.6924 -5.0242
H 4.674 4.094 -4.4516
H 5.6561 2.7027 -2.642
H 5.9938 2.0492 -4.2776

