%chk=_4_alde1_6_ami2_1_opt_gas_pbe.chk
%mem=60000mb
%nprocshared=32

#P PBE1PBE/Def2TZVP SP SCF=(YQC,MaxCycle=900) int=(Grid=Superfinegrid) EmpiricalDispersion=GD3 

_4_alde1_6_ami2_1_opt_gas_pbe

0 1
C -0.9449 -1.0282 4.0437
C -1.9641 -2.0721 4.0799
C -1.3055 0.3187 4.0697
C -0.3348 1.3129 4.0745
H -2.356 0.5648 4.101
C 1.0119 0.9522 4.0421
C 1.3874 -0.3854 4.0159
H 1.7511 1.7388 4.053
C 0.4011 -1.3713 4.0115
C 2.8013 -0.7465 4.023
H 0.713 -2.4046 3.9975
C -0.7286 2.7164 4.1421
H 3.4894 0.0908 3.8568
H -1.5912 -3.0846 3.8858
H -1.7993 2.8998 3.9937
C -3.948 -1.6446 -0.083
C -4.544 -1.5206 1.2397
C -3.2155 -2.7806 -0.4276
C -2.6765 -2.9176 -1.7008
H -3.0908 -3.5541 0.3148
C -2.8669 -1.9004 -2.6356
C -3.5955 -0.7634 -2.3084
H -2.4461 -2.0287 -3.6213
C -4.1285 -0.6395 -1.0258
C -3.8194 0.2728 -3.3115
H -4.6962 0.2482 -0.7921
C -1.943 -4.128 -2.0568
H -3.2164 0.1682 -4.2211
H -4.9458 -0.5269 1.4925
H -1.7048 -4.7853 -1.2123
C 3.3532 -2.499 -0.2104
C 3.5679 -3.1322 1.0832
C 3.9764 -1.2905 -0.5214
C 3.8004 -0.7016 -1.7676
H 4.6084 -0.8337 0.2248
C 2.9824 -1.3261 -2.7084
C 2.356 -2.5316 -2.4146
H 2.863 -0.8566 -3.6728
C 2.5421 -3.11 -1.1592
C 1.5375 -3.1931 -3.4212
H 2.053 -4.0489 -0.9495
C 4.4892 0.5443 -2.0891
H 1.2872 -2.5888 -4.3071
H 2.9075 -3.9822 1.3156
H 4.961 1.0415 -1.2335
C 0.4643 4.214 -0.044
C 0.9196 4.677 1.2596
C -0.8977 4.1375 -0.334
C -1.3338 3.73 -1.5892
H -1.6019 4.4164 0.4348
C -0.3937 3.3854 -2.56
C 0.9671 3.4564 -2.2863
H -0.7493 3.0771 -3.5312
C 1.3889 3.867 -1.022
C 1.9373 3.1279 -3.3214
H 2.4491 3.9224 -0.8282
C -2.7582 3.6896 -1.8895
H 1.5305 2.639 -4.2204
H 1.9904 4.5319 1.4718
H -3.4326 3.7937 -1.0252
C -4.2269 -2.7546 4.4189
C -5.2273 -2.3431 3.3095
N -3.1621 -1.7918 4.3482
C -3.838 -4.2241 4.2331
C -4.8934 -2.5537 5.7858
N -4.6262 -2.5017 2.0271
H -5.5639 -1.3101 3.4934
H -6.0875 -3.0176 3.3581
H -4.2124 -2.8631 6.5753
H -5.8053 -3.1412 5.855
H -5.1322 -1.5036 5.9307
H -3.4513 -4.3859 3.2306
H -4.7177 -4.8479 4.3669
H -3.0907 -4.5186 4.9676
C 4.5286 -2.3753 4.276
C 4.6607 -3.4016 3.1225
N 3.1612 -1.9339 4.2382
C 5.6038 -1.2958 4.1216
C 4.7039 -3.1076 5.6124
N 4.4776 -2.7506 1.8681
H 3.9388 -4.2185 3.2836
H 5.6766 -3.8074 3.1405
H 4.6404 -2.3957 6.4321
H 5.6694 -3.6054 5.6502
H 3.9158 -3.8452 5.7368
H 6.5857 -1.7498 4.2254
H 5.4934 -0.5323 4.8894
H 5.5386 -0.8392 3.1377
C -0.1797 5.0152 4.4796
C 0.6257 5.6859 3.3382
N 0.1218 3.6129 4.3847
C -1.6545 5.4106 4.3609
C 0.3857 5.4837 5.8263
N 0.1404 5.2406 2.0745
H 1.6971 5.4704 3.4787
H 0.4633 6.7664 3.3942
H 0.3357 6.5667 5.9044
H 1.4198 5.165 5.9248
H -0.1881 5.0434 6.6384
H -2.2497 4.9016 5.1168
H -2.0304 5.1654 3.3712
H -1.7518 6.4826 4.5097
C -0.9389 -5.5418 -3.6973
C 0.3808 -5.0091 -4.3105
N -1.6517 -4.3739 -3.2569
C -0.6156 -6.592 -2.6307
C -1.7876 -6.1653 -4.8125
N 1.1736 -4.3937 -3.2986
H 0.1423 -4.3206 -5.1372
H 0.9444 -5.8617 -4.7011
H -2.0512 -5.4073 -5.545
H -2.705 -6.5707 -4.3923
H -1.2408 -6.9649 -5.3055
H 0.069 -6.1805 -1.8939
H -0.1393 -7.4475 -3.1021
H -1.5254 -6.9309 -2.1386
C -4.9619 2.2325 -4.0553
C -4.5885 3.546 -3.3224
N -4.6707 1.1806 -3.12
C -4.2328 2.1768 -5.4009
C -6.4795 2.2017 -4.2751
N -3.1864 3.5782 -3.0698
H -5.1855 3.6254 -2.3996
H -4.8272 4.3857 -3.9817
H -6.7989 3.0681 -4.8485
H -6.9925 2.1974 -3.3173
H -6.7538 1.2988 -4.8156
H -4.5834 2.9883 -6.0329
H -4.4332 1.2341 -5.9067
H -3.1626 2.2938 -5.253
C 5.1983 2.1754 -3.681
C 4.075 3.0826 -4.2442
N 4.539 0.9644 -3.2751
C 5.9684 2.9347 -2.5968
C 6.1422 1.7862 -4.8255
N 3.1583 3.4191 -3.2062
H 3.5869 2.5695 -5.0884
H 4.5311 4.0113 -4.5995
H 6.9545 1.1749 -4.4395
H 6.5593 2.674 -5.2937
H 5.6023 1.2085 -5.5707
H 6.4705 3.7883 -3.0443
H 6.7194 2.2931 -2.1397
H 5.284 3.299 -1.8354

