%chk=_alde1_opt_gas_pbe.chk
%mem=60000mb
%nprocshared=32

#P PBE1PBE/Def2TZVP SP SCF=(YQC,MaxCycle=900) int=(Grid=Superfinegrid) EmpiricalDispersion=GD3 

_alde1_opt_gas_pbe

0 1
C -1.9716 1.8438 -0.2301
C -1.585 0.665 -1.0302
C -1.1197 2.3045 0.7739
O -0.5648 0.0465 -0.8868
C -1.4668 3.4132 1.5379
H -0.1887 1.7818 0.9426
C -2.6757 4.0657 1.2952
C -3.5314 3.614 0.2966
H -2.9296 4.9259 1.8986
C -3.1745 2.5008 -0.4646
C -4.8128 4.2976 0.0321
H -3.8516 2.1633 -1.2366
O -5.6024 3.967 -0.8112
C -0.572 3.9084 2.6026
O -0.8027 4.8575 3.3025
H -4.998 5.1669 0.691
H -2.3304 0.3842 -1.7981
H 0.3585 3.32 2.7116

