%chk=_ami1_opt_cfm_mp2.chk
%mem=60000mb
%nprocshared=32

#P MP2/aug-cc-pVDZ SP SCF=(YQC,MaxCycle=900) int=(Grid=Superfinegrid)  SCRF=(PCM,Solvent=Chloroform)

_ami1_opt_cfm_mp2

0 1
C -0.3403 -0.542 -0.5853
C 0.8707 -0.479 0.3837
N -0.1793 -1.7379 -1.408
H -0.3551 0.389 -1.1794
C -1.6964 -0.6288 0.1504
N 0.9712 -1.6686 1.2164
H 0.7426 0.3854 1.0425
C 2.2266 -0.2973 -0.3326
H -0.9554 -1.8365 -2.0514
H 0.6652 -1.6647 -1.964
H 0.9429 -2.4817 0.608
H 0.1715 -1.7307 1.8362
H -1.7671 -1.6203 0.61
C -2.8556 -0.4815 -0.8388
C -1.8445 0.4409 1.2326
H 2.4545 -1.2193 -0.8775
C 3.3143 -0.1013 0.7229
C 2.2398 0.8796 -1.3059
H -1.1666 0.275 2.0653
H -2.8597 0.4295 1.624
H -1.6507 1.4282 0.8176
H -3.8044 -0.5163 -0.3078
H -2.8633 -1.2804 -1.5762
H -2.7907 0.4726 -1.3594
H 1.6127 0.6996 -2.1759
H 3.2545 1.0518 -1.6589
H 1.8934 1.7847 -0.8109
H 3.2572 -0.8985 1.4574
H 3.1787 0.8509 1.2314
H 4.2993 -0.1098 0.262

