%chk=_ami2_opt_dcm_pbe.chk
%mem=60000mb
%nprocshared=32

#P PBE1PBE/Def2TZVP SP SCF=(YQC,MaxCycle=900) int=(Grid=Superfinegrid) EmpiricalDispersion=GD3 SCRF=(PCM,Solvent=Dichloromethane)

_ami2_opt_dcm_pbe

0 1
C -0.6438 0.7901 0.353
C 0.8492 0.4308 0.5588
N -0.7009 2.222 0.0684
C -1.4329 0.4059 1.6141
C -1.2176 0.0498 -0.8576
N 1.7344 0.8292 -0.516
H -0.3641 2.7508 0.8667
H -1.6573 2.5077 -0.1121
H 1.5149 0.3076 -1.3581
H 1.5718 1.8108 -0.7202
H 0.946 -0.6476 0.7056
H 1.2028 0.9282 1.4683
H -1.066 -1.0218 -0.7554
H -0.737 0.3934 -1.7702
H -2.285 0.2422 -0.9464
H -1.3688 -0.6643 1.7936
H -2.4826 0.6743 1.5016
H -1.0354 0.9245 2.4853

