%chk=_ami3_opt_cfm_pbe.chk
%mem=60000mb
%nprocshared=32

#P PBE1PBE/Def2TZVP SP SCF=(YQC,MaxCycle=900) int=(Grid=Superfinegrid) EmpiricalDispersion=GD3 SCRF=(PCM,Solvent=Chloroform)

_ami3_opt_cfm_pbe

0 1
C 0.5657 -0.4062 1.9071
C 1.7457 -0.5905 0.9306
N 1.0823 -0.4322 3.2696
N 2.8127 0.375 1.1325
H 0.3325 -0.2729 3.9341
H 1.4787 -1.3462 3.4688
H 3.0797 0.3638 2.1121
H 2.4672 1.309 0.9313
C 1.246 -0.5174 -0.5116
H 2.1843 -1.5817 1.1081
C 0.171 -1.566 -0.7758
H 2.0938 -0.6592 -1.1827
H 0.8373 0.4797 -0.6947
C -0.9985 -1.3839 0.1869
H 0.5969 -2.5633 -0.6449
H -0.18 -1.4844 -1.8064
C -0.5151 -1.4606 1.6312
H -1.754 -2.1523 0.0085
H -1.4636 -0.4106 0.0131
H -0.0975 -2.4535 1.8237
H -1.3552 -1.3117 2.3163
H 0.1384 0.5939 1.7527

