%chk=_ami4_opt_dcm_pbe.chk
%mem=60000mb
%nprocshared=32

#P PBE1PBE/Def2TZVP SP SCF=(YQC,MaxCycle=900) int=(Grid=Superfinegrid) EmpiricalDispersion=GD3 SCRF=(PCM,Solvent=Dichloromethane)

_ami4_opt_dcm_pbe

0 1
C -0.7407 0.9871 0.4942
C 0.6799 0.4539 0.25
N -1.2498 1.8276 -0.5713
N 1.5872 1.5758 0.0574
H -1.3069 1.292 -1.4324
H -0.5854 2.5784 -0.7349
H 1.6283 2.1371 0.9027
H 2.5253 1.2467 -0.1417
H 0.6923 -0.1402 -0.6696
H 0.9653 -0.2071 1.0861
H -0.7459 1.5827 1.4125
H -1.4245 0.145 0.6299

