%chk=_water_opt_dcm_pbe.chk
%mem=60000mb
%nprocshared=32

#P PBE1PBE/Def2TZVP SP SCF=(YQC,MaxCycle=900) int=(Grid=Superfinegrid) EmpiricalDispersion=GD3 SCRF=(PCM,Solvent=Dichloromethane)

_water_opt_dcm_pbe

0 1
O -0.9841 0.6351 -0.004
H -0.0251 0.6464 0.0112
H -1.286 1.1785 0.7265

