%chk=_water_opt_cfm_mp2.chk
%mem=60000mb
%nprocshared=32

#P MP2/aug-cc-pVDZ SP SCF=(YQC,MaxCycle=900) int=(Grid=Superfinegrid)  SCRF=(PCM,Solvent=Chloroform)

_water_opt_cfm_mp2

0 1
O -0.9841 0.6351 -0.004
H -0.0251 0.6464 0.0112
H -1.286 1.1785 0.7265

