# closed shell KS, PBE0/def2-TZVP/D4
! DFT SP RKS PBE0 def2-TZVP D4 Grid6 NOFINALGRID SlowConv TightSCF printbasis

%base "_fe4dd" 
%maxcore 3000
%scf
   MaxIter 2000
end

%pal
   nprocs 48
end

* xyzfile 4 1 fe4dd_xtb_dft.xyz
