# closed shell KS, PBE0/def2-TZVP/D4
! DFT SP RKS PBE0 def2-TZVP D4 Grid6 NOFINALGRID SlowConv TightSCF printbasis

%base "_zn1ld" 
%maxcore 4000
%scf
   MaxIter 2000
end

%pal
   nprocs 48
end

* xyzfile 4 1 zn1ld_xtb_dft.xyz
