%chk=_s_4c1_b.chk
%mem=60000mb
%nprocshared=32

#P PBE1PBE/Def2SVP SP  SCF=(YQC,MaxCycle=900) int=(Grid=Superfinegrid) EmpiricalDispersion=GD3BJ SCRF=(PCM,Solvent=DiMethylSulfoxide)

_s_4c1_b

4 1
Pd 0.1797 6.4772 0.4939
Pd 0.8654 -5.8701 0.4854
C 4.9886 -1.5915 0.4976
C 4.9022 -2.2543 1.5062
C 4.9345 -3.1035 2.6317
C 5.8091 -2.8626 3.6737
C 5.9619 -3.7885 4.7125
C 5.2773 -4.9786 4.7092
C 4.3609 -5.2568 3.679
C 3.6375 -6.4673 3.5876
C 2.7311 -6.6461 2.5825
N 2.453 -5.6727 1.6794
C 3.1422 -4.5477 1.7054
C 4.1445 -4.2921 2.6536
H 6.4014 -1.9605 3.6717
H 6.6556 -3.5699 5.5101
H 5.4343 -5.7095 5.4868
H 3.8095 -7.2444 4.315
H 2.1877 -7.5784 2.4677
H 2.905 -3.7922 0.9591
C 5.1893 -0.8899 -0.7122
C 5.9508 -1.5305 -1.7074
C 6.256 -0.8994 -2.8922
C 5.7785 0.39 -3.0808
N 5.9387 1.2296 -4.1536
C 5.2985 2.4085 -3.9022
C 5.181 3.5465 -4.6885
C 4.4667 4.6104 -4.1857
C 3.8765 4.5789 -2.9088
C 3.9879 3.4279 -2.1296
C 4.684 2.3408 -2.6271
C 4.9921 1.038 -2.0983
C 4.6976 0.3969 -0.9044
H 6.3162 -2.5286 -1.5215
H 6.8564 -1.3892 -3.6421
H 6.5379 1.0493 -4.9419
H 5.6384 3.6025 -5.6641
H 4.3436 5.4827 -4.8071
H 3.5811 3.3812 -1.1333
H 4.1151 0.8823 -0.1385
C 3.1628 5.7573 -2.4113
C 3.4666 7.0535 -2.8516
C 2.7435 8.1353 -2.3826
C 1.7424 7.9249 -1.449
N 1.4758 6.6986 -0.9941
C 2.1444 5.6461 -1.4615
H 4.2755 7.2159 -3.5455
H 2.9607 9.1333 -2.7275
H 1.1397 8.7384 -1.0505
H 1.8448 4.6806 -1.0596
C 0.9375 2.6849 4.7744
C 1.9424 3.3254 4.567
C 3.0451 4.1857 4.3917
C 4.1907 4.0593 5.1523
C 5.2157 5.0097 5.0674
C 5.0996 6.1114 4.2561
C 3.9574 6.2715 3.4505
C 3.743 7.3884 2.612
C 2.6198 7.4566 1.8384
N 1.7073 6.4528 1.7979
C 1.8592 5.4082 2.5914
C 2.9381 5.2773 3.4775
H 4.2852 3.2319 5.8384
H 6.0974 4.8827 5.6769
H 5.8727 6.863 4.2299
H 4.4682 8.1861 2.594
H 2.4123 8.319 1.2148
H 1.1087 4.6217 2.5381
C -0.255 1.9826 5.0535
C -1.2971 2.6767 5.6952
C -2.4809 2.0514 6.0192
C -2.6235 0.7126 5.6792
N -3.6884 -0.1287 5.868
C -3.3805 -1.364 5.3738
C -4.1405 -2.5262 5.3408
C -3.5752 -3.6514 4.783
C -2.2718 -3.6456 4.2545
C -1.518 -2.4747 4.2757
C -2.0705 -1.3342 4.8326
C -1.5838 0.0051 5.0262
C -0.392 0.64 4.7154
H -1.1519 3.7154 5.9504
H -3.2679 2.5855 6.5278
H -4.5406 0.1075 6.3492
H -5.1418 -2.5517 5.7413
H -4.1634 -4.5538 4.7289
H -0.5044 -2.4563 3.9097
H 0.4133 0.1138 4.2293
C -1.7166 -4.8787 3.6928
C -2.0418 -6.1363 4.2161
C -1.518 -7.2799 3.6409
C -0.6638 -7.1569 2.5587
N -0.3308 -5.9591 2.0709
C -0.8391 -4.8519 2.6074
H -2.6876 -6.2126 5.0764
H -1.764 -8.255 4.029
H -0.2328 -8.0271 2.0682
H -0.5389 -3.9165 2.1407
C -4.0542 2.4334 0.9812
C -3.9012 3.1187 1.9664
C -3.8082 3.9782 3.0802
C -4.6761 3.8527 4.1469
C -4.6609 4.7753 5.1997
C -3.8025 5.8462 5.1942
C -2.9013 6.0162 4.1277
C -2.019 7.1159 4.0268
C -1.1763 7.2194 2.9576
N -1.1215 6.2677 1.9919
C -1.9342 5.2293 2.0481
C -2.8756 5.0585 3.0733
H -5.3911 3.0448 4.1532
H -5.356 4.65 6.0164
H -3.816 6.5707 5.9933
H -2.0268 7.8741 4.7935
H -0.5054 8.0648 2.8319
H -1.854 4.4844 1.2586
C -4.2992 1.7225 -0.2149
C -5.0225 2.387 -1.2229
C -5.3327 1.7628 -2.4101
C -4.8987 0.4563 -2.5901
N -5.0644 -0.373 -3.6672
C -4.4771 -1.5765 -3.4034
C -4.4 -2.7167 -4.1926
C -3.7538 -3.8166 -3.675
C -3.1752 -3.8021 -2.3935
C -3.2393 -2.6515 -1.611
C -3.8927 -1.5369 -2.1115
C -4.163 -0.2233 -1.587
C -3.8643 0.4124 -0.3906
H -5.3491 3.4007 -1.0477
H -5.9034 2.2712 -3.1711
H -5.5833 -0.1508 -4.5007
H -4.8362 -2.7445 -5.1789
H -3.6676 -4.7034 -4.283
H -2.8327 -2.6343 -0.6131
H -3.3175 -0.0907 0.3904
C -2.5173 -5.0144 -1.8981
C -3.0117 -6.2901 -2.1986
C -2.3516 -7.4136 -1.7349
C -1.2092 -7.2541 -0.9689
N -0.7424 -6.0411 -0.6684
C -1.3661 -4.951 -1.1132
H -3.9164 -6.3948 -2.7764
H -2.7198 -8.4016 -1.9586
H -0.6517 -8.1048 -0.5857
H -0.9168 -3.9978 -0.8417
C -0.6024 2.6496 -3.9548
C -1.547 3.3524 -3.6741
C -2.6404 4.2167 -3.4566
C -3.7772 4.1162 -4.2349
C -4.8207 5.0406 -4.1106
C -4.7387 6.0912 -3.2313
C -3.5996 6.2371 -2.4191
C -3.4234 7.3119 -1.5182
C -2.2926 7.3872 -0.7563
N -1.3303 6.4335 -0.8063
C -1.4522 5.4222 -1.6455
C -2.5502 5.2768 -2.5053
H -3.8474 3.3252 -4.9651
H -5.6939 4.9332 -4.7365
H -5.5333 6.8172 -3.1602
H -4.1848 8.0719 -1.4443
H -2.1135 8.2099 -0.0705
H -0.66 4.6757 -1.6565
C 0.5459 1.9658 -4.417
C 1.3402 2.6561 -5.3523
C 2.4513 2.0719 -5.9144
C 2.7695 0.7793 -5.5232
N 3.8084 -0.0134 -5.9345
C 3.7322 -1.2184 -5.2998
C 4.5639 -2.3244 -5.4037
C 4.2563 -3.4353 -4.6534
C 3.1334 -3.4756 -3.8069
C 2.3162 -2.3522 -3.6879
C 2.6151 -1.2181 -4.4266
C 1.9938 0.0757 -4.5696
C 0.8705 0.6744 -4.0138
H 1.0545 3.6559 -5.6402
H 3.0471 2.598 -6.6432
H 4.4472 0.2131 -6.6786
H 5.4218 -2.3196 -6.058
H 4.9139 -4.2883 -4.7039
H 1.4343 -2.3662 -3.0694
H 0.2548 0.1527 -3.2995
C 2.8473 -4.717 -3.0809
C 3.197 -5.9676 -3.61
C 2.9635 -7.1209 -2.8833
C 2.3566 -7.0233 -1.6427
N 1.9833 -5.8401 -1.1509
C 2.2194 -4.7206 -1.8341
H 3.6338 -6.0365 -4.5934
H 3.2396 -8.0854 -3.2775
H 2.1606 -7.8981 -1.0253
H 1.9042 -3.7947 -1.3588

