%chk=_s_5b4_d.chk
%mem=60000mb
%nprocshared=32

#P PBE1PBE/Def2SVP SP  SCF=(YQC,MaxCycle=900) int=(Grid=Superfinegrid) EmpiricalDispersion=GD3BJ SCRF=(PCM,Solvent=DiMethylSulfoxide)

_s_5b4_d

4 1
Pd -1.2266 6.6494 -1.4304
Pd -0.3749 -7.1349 -0.4573
C 4.2681 -2.4137 -3.1761
C 4.3169 -3.6209 -3.2411
C 4.2747 -5.0274 -3.2526
C 5.0031 -5.7839 -4.1528
C 4.9093 -7.1801 -4.1588
C 4.0805 -7.8403 -3.2876
C 3.3161 -7.1058 -2.3576
C 2.3733 -7.7098 -1.4993
N 1.6342 -7.0234 -0.6569
C 1.8236 -5.6775 -0.5326
C 2.6917 -4.9949 -1.3357
C 3.4305 -5.6886 -2.3168
H 5.6512 -5.2897 -4.8602
H 5.4959 -7.7397 -4.871
H 4.0008 -8.9155 -3.3067
H 2.2151 -8.7813 -1.5361
H 1.2768 -5.1819 0.2743
H 2.8189 -3.9282 -1.2429
C 4.1808 -1.013 -3.0688
C 5.0584 -0.1781 -3.7685
C 4.9653 1.1893 -3.6351
C 3.9881 1.7533 -2.8057
C 3.1017 0.9194 -2.1162
C 3.1999 -0.4475 -2.2448
H 5.8143 -0.6134 -4.4046
H 5.6477 1.8345 -4.167
H 2.3552 1.3547 -1.4713
H 2.5237 -1.0932 -1.7073
C 3.9416 3.1497 -2.64
C 3.9362 4.3469 -2.462
C 4.0842 5.7297 -2.2568
C 5.3007 6.3238 -2.549
C 5.5126 7.6867 -2.328
C 4.5143 8.4815 -1.8207
C 3.2572 7.9261 -1.5274
C 2.1828 8.6962 -1.0261
C 0.968 8.1128 -0.8185
N 0.7498 6.791 -1.0634
C 1.7416 6.0318 -1.482
C 3.0255 6.5364 -1.7442
H 6.1004 5.7164 -2.9438
H 6.4773 8.1121 -2.5581
H 4.6792 9.5328 -1.6455
H 2.3322 9.7457 -0.8278
H 0.1197 8.6806 -0.4263
H 1.529 4.9803 -1.6389
C -2.0354 1.913 4.49
C -2.1858 3.1112 4.4139
C -2.329 4.5004 4.2372
C -2.6901 5.3388 5.2773
C -2.8212 6.7178 5.0763
C -2.5948 7.2809 3.8456
C -2.2224 6.4614 2.7595
C -1.9709 6.9761 1.4704
N -1.6202 6.2122 0.4618
C -1.4867 4.869 0.6322
C -1.7098 4.2738 1.8401
C -2.0873 5.0576 2.9494
H -2.8731 4.9228 6.2564
H -3.105 7.3413 5.9101
H -2.6972 8.3444 3.6997
H -2.0693 8.0401 1.2827
H -1.1823 4.2924 -0.2475
H -1.5986 3.2089 1.9666
C -1.8338 0.5205 4.5441
C -1.6343 -0.1953 3.3567
C -1.409 -1.5527 3.3928
C -1.3756 -2.2266 4.6188
C -1.5842 -1.5127 5.806
C -1.812 -0.1547 5.7694
H -1.6577 0.3278 2.4138
H -1.2514 -2.1036 2.4796
H -1.5622 -2.0339 6.7514
H -1.9686 0.3954 6.6853
C -1.1266 -3.6105 4.6803
C -0.9018 -4.798 4.7501
C -0.6496 -6.168 4.9419
C -0.5957 -6.6719 6.231
C -0.3519 -8.0272 6.4682
C -0.1624 -8.903 5.4274
C -0.2088 -8.4374 4.1019
C -0.0277 -9.2885 2.9873
C -0.0838 -8.7768 1.7239
N -0.3062 -7.456 1.4944
C -0.4836 -6.6313 2.5048
C -0.4501 -7.0565 3.8431
H -0.7449 -6.0035 7.0651
H -0.3154 -8.3829 7.4865
H 0.0227 -9.9493 5.6128
H 0.1525 -10.3394 3.1492
H 0.0555 -9.4095 0.843
H -0.6672 -5.5865 2.2746
C -6.3585 -2.4114 -0.6027
C -6.305 -3.6098 -0.4443
C -6.1507 -4.9991 -0.2774
C -7.2335 -5.8403 -0.0904
C -7.0532 -7.2191 0.0686
C -5.8009 -7.7795 0.0422
C -4.6708 -6.9571 -0.1487
C -3.3569 -7.4688 -0.1904
N -2.3067 -6.7023 -0.3728
C -2.4564 -5.359 -0.5294
C -3.6857 -4.7667 -0.5023
C -4.8396 -5.5534 -0.3098
H -8.2302 -5.4265 -0.0666
H -7.9205 -7.8449 0.213
H -5.6711 -8.843 0.1646
H -3.1852 -8.5327 -0.0651
H -1.5404 -4.7802 -0.6872
H -3.795 -3.7017 -0.6304
C -6.3822 -1.0186 -0.8075
C -7.5894 -0.3453 -1.0249
C -7.5915 1.0132 -1.2527
C -6.3877 1.7295 -1.2657
C -5.1817 1.0575 -1.0369
C -5.1797 -0.3003 -0.8117
H -8.5174 -0.8973 -1.0191
H -8.5221 1.5328 -1.4256
H -4.2561 1.6103 -1.0441
H -4.2518 -0.8219 -0.6378
C -6.4111 3.114 -1.5184
C -6.4463 4.3019 -1.7489
C -6.598 5.6721 -2.0257
C -7.8631 6.174 -2.2836
C -8.061 7.5293 -2.5598
C -7.0051 8.4073 -2.5796
C -5.703 7.9438 -2.323
C -4.5756 8.7973 -2.3225
C -3.3363 8.2877 -2.066
N -3.1426 6.9668 -1.8118
C -4.1667 6.1401 -1.7995
C -5.4833 6.563 -2.0457
H -8.709 5.5039 -2.2704
H -9.0612 7.8834 -2.7576
H -7.1607 9.4536 -2.7902
H -4.7087 9.8482 -2.5245
H -2.4457 8.9222 -2.0619
H -3.9665 5.0953 -1.583
C 2.2165 1.9437 -5.5811
C 2.2859 3.1511 -5.6168
C 2.2873 4.5575 -5.571
C 3.2917 5.3173 -6.1429
C 3.2792 6.7133 -6.047
C 2.2839 7.3701 -5.3689
C 1.2442 6.6322 -4.7662
C 0.2435 7.2325 -3.9734
N -0.7056 6.5428 -3.3814
C -0.7947 5.1971 -3.5907
C 0.1397 4.518 -4.3188
C 1.2258 5.2151 -4.8881
H 4.0957 4.8259 -6.669
H 4.0757 7.2756 -6.5096
H 2.2874 8.4451 -5.2853
H 0.2518 8.3037 -3.8095
H -1.6782 4.6988 -3.1824
H 0.0713 3.4514 -4.4611
C 2.0993 0.5426 -5.5146
C 2.9326 -0.2893 -6.2696
C 2.7884 -1.6571 -6.2018
C 1.8135 -2.2244 -5.3719
C 0.989 -1.3935 -4.6064
C 1.1292 -0.0261 -4.68
H 3.6812 0.1485 -6.9125
H 3.4242 -2.3001 -6.7909
H 0.233 -1.8313 -3.9742
H 0.4888 0.6174 -4.0979
C 1.6449 -3.6212 -5.3555
C 1.4703 -4.8185 -5.3816
C 1.294 -6.2012 -5.5638
C 1.779 -6.7919 -6.7188
C 1.5972 -8.1544 -6.9667
C 0.9373 -8.9525 -6.0648
C 0.4448 -8.4007 -4.87
C -0.2213 -9.1742 -3.8919
C -0.6226 -8.5942 -2.725
N -0.4184 -7.2726 -2.4673
C 0.1529 -6.5103 -3.3771
C 0.6191 -7.0113 -4.6032
H 2.2963 -6.1818 -7.4432
H 1.9802 -8.577 -7.8829
H 0.7927 -10.0036 -6.2583
H -0.391 -10.2237 -4.0737
H -1.1451 -9.1648 -1.9521
H 0.2716 -5.4592 -3.1397

