%chk=_s_4b1_c.chk
%mem=60000mb
%nprocshared=32

#P PBE1PBE/Def2SVP SP  SCF=(YQC,MaxCycle=900) int=(Grid=Superfinegrid) EmpiricalDispersion=GD3BJ SCRF=(PCM,Solvent=DiMethylSulfoxide)

_s_4b1_c

4 1
Pd -0.3792 4.4635 0.5467
Pd -0.0667 -6.8458 1.2506
C 4.5784 -3.0653 1.6879
C 4.8221 -4.2498 1.7166
C 5.1662 -5.6149 1.7094
C 6.4948 -5.9932 1.7734
C 6.8632 -7.3422 1.7294
C 5.9177 -8.3291 1.6028
C 4.5538 -7.9912 1.5303
C 3.5328 -8.9557 1.3749
C 2.2283 -8.5602 1.3084
N 1.8656 -7.258 1.4105
C 2.7893 -6.3271 1.5489
C 4.1607 -6.623 1.601
H 7.2585 -5.2352 1.8573
H 7.9093 -7.6015 1.787
H 6.2064 -9.3673 1.5542
H 3.7965 -9.9988 1.3036
H 1.4205 -9.276 1.1691
H 2.4487 -5.2968 1.6274
C 4.2567 -1.6947 1.615
C 5.1795 -0.7822 1.0948
C 4.8471 0.5525 0.9875
C 3.5897 1.0059 1.3904
C 2.6774 0.0935 1.9267
C 3.0045 -1.2405 2.0399
H 6.1487 -1.1285 0.7708
H 5.5581 1.2431 0.5611
H 1.72 0.4381 2.2859
H 2.3018 -1.9399 2.463
C 3.2243 2.4221 1.2564
C 4.1261 3.4531 1.539
C 3.7167 4.7707 1.4234
C 2.411 5.0417 1.0488
N 1.5518 4.059 0.7724
C 1.9407 2.7857 0.8547
H 5.1281 3.2209 1.8649
H 4.3965 5.5798 1.6362
H 2.0354 6.0579 0.9629
H 1.2009 2.0388 0.5696
C -0.6243 -2.8826 5.8153
C -0.6219 -4.0661 6.0644
C -0.6769 -5.4254 6.4344
C -0.836 -5.7654 7.7646
C -0.9494 -7.1034 8.1587
C -0.9176 -8.1165 7.2338
C -0.7467 -7.8176 5.8697
C -0.7137 -8.8132 4.8674
C -0.5274 -8.4582 3.5631
N -0.3481 -7.1676 3.1873
C -0.3912 -6.2073 4.0899
C -0.6054 -6.4611 5.4549
H -0.8843 -4.9854 8.509
H -1.074 -7.3319 9.2061
H -1.0218 -9.146 7.5383
H -0.8381 -9.8477 5.1447
H -0.5134 -9.1993 2.7658
H -0.2454 -5.1877 3.7392
C -0.6275 -1.5124 5.4759
C 0.3223 -0.6452 6.0224
C 0.3334 0.6856 5.6577
C -0.5951 1.1766 4.7381
C -1.5612 0.3133 4.2176
C -1.582 -1.0163 4.5829
H 1.051 -1.0231 6.7226
H 1.0867 1.3417 6.0654
H -2.3187 0.6956 3.5525
H -2.3406 -1.6764 4.1937
C -0.5313 2.5783 4.3007
C -0.2811 3.6266 5.1915
C -0.1957 4.9234 4.7134
C -0.3309 5.1521 3.354
N -0.5622 4.1513 2.502
C -0.6789 2.9017 2.9539
H -0.1723 3.4251 6.2458
H -0.017 5.7476 5.3846
H -0.255 6.1488 2.9273
H -0.884 2.1375 2.2051
C -5.0234 0.6834 0.105
C -5.2683 1.8679 0.0847
C -5.6133 3.2327 0.1023
C -6.9421 3.6107 0.0444
C -7.3112 4.9591 0.0995
C -6.366 5.9457 0.2311
C -5.0016 5.608 0.2974
C -3.9807 6.572 0.4568
C -2.6758 6.1768 0.5162
N -2.3128 4.8756 0.4037
C -3.2364 3.9452 0.2614
C -4.608 4.2406 0.2155
H -7.7057 2.853 -0.0432
H -8.3575 5.2183 0.0466
H -6.6551 6.9833 0.2883
H -4.2448 7.6144 0.5365
H -1.8677 6.8919 0.658
H -2.8954 2.9156 0.1742
C -4.7008 -0.6873 0.1703
C -3.445 -1.1375 -0.2484
C -3.1169 -2.4717 -0.1405
C -4.0319 -3.3883 0.3837
C -5.2931 -2.9391 0.7795
C -5.6263 -1.6042 0.6778
H -2.7402 -0.4348 -0.6623
H -2.1565 -2.813 -0.4947
H -6.0064 -3.6332 1.1962
H -6.5985 -1.2611 0.9966
C -3.6655 -4.8047 0.5134
C -4.5628 -5.8354 0.216
C -4.1527 -7.153 0.3292
C -2.8507 -7.424 0.7163
N -1.9958 -6.4415 1.0066
C -2.3856 -5.1683 0.9265
H -5.5616 -5.6028 -0.119
H -4.829 -7.9619 0.1051
H -2.4745 -8.4401 0.8013
H -1.6499 -4.4219 1.2231
C 0.1328 0.4984 -4.0204
C 0.1181 1.6815 -4.2712
C 0.1573 3.0406 -4.6438
C 0.2873 3.38 -5.9774
C 0.3845 4.7182 -6.3751
C 0.3654 5.7322 -5.4508
C 0.2238 5.4339 -4.0832
C 0.2047 6.4304 -3.0814
C 0.0452 6.076 -1.7734
N -0.1198 4.7849 -1.3931
C -0.0881 3.8237 -2.2953
C 0.0988 4.077 -3.6643
H 0.3254 2.5995 -6.7218
H 0.4863 4.9463 -7.4251
H 0.4573 6.762 -5.7584
H 0.3179 7.4654 -3.3621
H 0.0423 6.8178 -0.9767
H -0.221 2.8038 -1.9407
C 0.1492 -0.8714 -3.6799
C -0.795 -1.7469 -4.223
C -0.7936 -3.0775 -3.8577
C 0.1417 -3.56 -2.9406
C 1.1019 -2.6883 -2.4231
C 1.1105 -1.3589 -2.7895
H -1.5291 -1.3756 -4.921
H -1.5423 -3.7404 -4.2629
H 1.8642 -3.064 -1.7596
H 1.8649 -0.6923 -2.4032
C 0.0907 -4.9621 -2.5026
C -0.1499 -6.0128 -3.3933
C -0.2246 -7.3101 -2.9149
C -0.0896 -7.537 -1.5552
N 0.1323 -6.534 -0.7033
C 0.24 -5.2837 -1.1556
H -0.2598 -5.8124 -4.4477
H -0.3954 -8.136 -3.5861
H -0.1578 -8.5341 -1.1281
H 0.4389 -4.5178 -0.4069

