%chk=_s_5a1_c.chk
%mem=60000mb
%nprocshared=32

#P PBE1PBE/Def2SVP SP  SCF=(YQC,MaxCycle=900) int=(Grid=Superfinegrid) EmpiricalDispersion=GD3BJ SCRF=(PCM,Solvent=DiMethylSulfoxide)

_s_5a1_c

4 1
Pd 0.0252 3.819 0.1129
Pd 0.9525 -7.6759 0.7372
C 7.0055 -2.7165 0.8268
C 6.8474 -3.9134 0.8995
C 6.644 -5.2984 1.0494
C 7.6933 -6.1336 1.3924
C 7.4886 -7.5021 1.6024
C 6.2383 -8.0537 1.4908
C 5.1429 -7.2376 1.136
C 3.8329 -7.7396 1.0255
N 2.8105 -6.9863 0.6789
C 2.9966 -5.6721 0.3996
C 4.2236 -5.0809 0.5035
C 5.3405 -5.8485 0.8911
H 8.6838 -5.7195 1.5052
H 8.3321 -8.1215 1.8661
H 6.0829 -9.1056 1.6701
H 3.6311 -8.7879 1.2342
H 2.1085 -5.1252 0.0901
H 4.3582 -4.0319 0.2936
C 7.1747 -1.3172 0.8068
C 8.4173 -0.762 1.2011
C 8.5777 0.5915 1.2585
C 7.5155 1.4629 0.931
C 7.6345 2.8648 1.0232
C 6.5848 3.6823 0.716
C 5.3509 3.1434 0.2827
C 5.2156 1.7769 0.1766
C 6.2771 0.9107 0.5058
C 6.1317 -0.4883 0.4496
H 9.2288 -1.4247 1.4623
H 9.5222 1.0164 1.5662
H 8.5734 3.2851 1.3528
H 6.6909 4.75 0.8292
H 4.3004 1.3397 -0.1905
H 5.1889 -0.9092 0.1363
C 4.2369 4.0445 -0.0413
C 4.4493 5.301 -0.6193
C 3.3706 6.1267 -0.8872
C 2.0929 5.6816 -0.5942
N 1.8849 4.4763 -0.0603
C 2.9158 3.6804 0.2197
H 5.4488 5.6194 -0.8704
H 3.5193 7.1002 -1.3257
H 1.2136 6.2932 -0.7854
H 2.6739 2.7277 0.6867
C 0.9145 -2.8802 6.9177
C 0.9919 -4.0727 6.7308
C 1.1492 -5.4517 6.4943
C 1.4791 -6.3126 7.5268
C 1.698 -7.6745 7.29
C 1.6097 -8.1934 6.024
C 1.2691 -7.3504 4.9446
C 1.1839 -7.8178 3.62
N 0.8496 -7.0397 2.6123
C 0.5579 -5.7328 2.8287
C 0.6387 -5.1736 4.0723
C 1.0135 -5.9682 5.1746
H 1.5744 -5.924 8.5295
H 1.9505 -8.3148 8.1213
H 1.7966 -9.24 5.844
H 1.4029 -8.8591 3.3941
H 0.2584 -5.1644 1.9506
H 0.4203 -4.1298 4.2311
C 0.8911 -1.4855 7.1207
C 1.3065 -0.9587 8.3687
C 1.3622 0.3907 8.5606
C 1.0115 1.2861 7.5262
C 1.101 2.6851 7.6772
C 0.7701 3.5264 6.6539
C 0.3144 3.0156 5.4161
C 0.2112 1.6524 5.2497
C 0.5645 0.7621 6.2831
C 0.5111 -0.6332 6.1049
H 1.5854 -1.6397 9.159
H 1.6864 0.7941 9.5091
H 1.4474 3.0839 8.6194
H 0.8814 4.5917 6.7835
H -0.1724 1.2358 4.3315
H 0.1808 -1.0325 5.1586
C -0.0365 3.9419 4.3313
C -0.616 5.1897 4.5862
C -0.9113 6.0396 3.5338
C -0.6438 5.6268 2.2396
N -0.108 4.43 1.9914
C 0.1983 3.6112 2.9965
H -0.8471 5.4827 5.5982
H -1.3513 7.0068 3.7152
H -0.857 6.2582 1.3795
H 0.6648 2.6673 2.7218
C -6.0299 -1.134 0.0738
C -5.8744 0.0646 0.0259
C -5.6747 1.4528 -0.0972
C -6.7317 2.295 -0.3966
C -6.5317 3.6677 -0.5819
C -5.2787 4.2167 -0.4901
C -4.1752 3.3933 -0.1799
C -2.8623 3.8925 -0.0932
N -1.8322 3.1323 0.2131
C -2.0126 1.8132 0.4727
C -3.2421 1.2244 0.3871
C -4.3676 1.9996 0.0416
H -7.7248 1.8833 -0.4941
H -7.3812 4.2927 -0.811
H -5.1271 5.2722 -0.6511
H -2.665 4.9445 -0.2869
H -1.1178 1.2602 0.7505
H -3.3723 0.1715 0.5796
C -6.1967 -2.5336 0.0621
C -7.4341 -3.0817 -0.3577
C -7.5914 -4.4337 -0.4477
C -6.5313 -5.3107 -0.1285
C -6.6468 -6.7103 -0.2541
C -5.5994 -7.5331 0.047
C -4.3717 -7.0024 0.5071
C -4.2398 -5.6384 0.6451
C -5.2987 -4.7664 0.323
C -5.1562 -3.3688 0.412
H -8.2439 -2.4144 -0.6126
H -8.5318 -4.853 -0.7753
H -7.5811 -7.1243 -0.604
H -5.7024 -8.5981 -0.0916
H -3.3296 -5.2083 1.0328
H -4.2178 -2.9538 0.7456
C -3.2607 -7.909 0.8258
C -3.479 -9.1776 1.3744
C -2.4029 -10.0074 1.6399
C -1.1219 -9.5544 1.3741
N -0.9086 -8.3381 0.868
C -1.9368 -7.5379 0.5903
H -4.4814 -9.5025 1.6049
H -2.556 -10.99 2.0559
H -0.2442 -10.1686 1.5648
H -1.6899 -6.5754 0.1467
C 0.0183 -0.9844 -6.0658
C -0.0849 0.2057 -5.8759
C -0.2694 1.5806 -5.6356
C -0.6421 2.4331 -6.6605
C -0.886 3.79 -6.4191
C -0.7791 4.312 -5.1558
C -0.3948 3.4777 -4.0843
C -0.2872 3.9486 -2.7627
N 0.0867 3.1787 -1.7625
C 0.3984 1.8774 -1.9844
C 0.3004 1.3153 -3.2255
C -0.1155 2.1009 -4.3194
H -0.7517 2.0417 -7.6606
H -1.1721 4.4237 -7.2444
H -0.9844 5.3545 -4.972
H -0.5214 4.9856 -2.5324
H 0.7287 1.3161 -1.1129
H 0.5363 0.276 -3.3886
C 0.0739 -2.3777 -6.2717
C -0.3139 -2.9108 -7.5259
C -0.3368 -4.2606 -7.7213
C 0.0206 -5.1503 -6.6843
C -0.0356 -6.5507 -6.8392
C 0.3 -7.3867 -5.8131
C 0.7272 -6.8688 -4.5681
C 0.7983 -5.504 -4.3979
C 0.4395 -4.6195 -5.4344
C 0.4599 -3.2237 -5.2529
H -0.598 -2.2344 -8.3183
H -0.6396 -4.669 -8.6747
H -0.3603 -6.955 -7.7868
H 0.214 -8.4539 -5.9463
H 1.16 -5.081 -3.4738
H 0.7684 -2.8194 -4.3014
C 1.0819 -7.7896 -3.4798
C 1.6905 -9.0248 -3.7282
C 1.9868 -9.8708 -2.6729
C 1.6913 -9.4663 -1.3823
N 1.1282 -8.281 -1.14
C 0.8207 -7.4663 -2.1482
H 1.9428 -9.311 -4.7371
H 2.449 -10.8286 -2.8494
H 1.9041 -10.0951 -0.5203
H 0.331 -6.5327 -1.8788

