%chk=_s_4c3_d.chk
%mem=60000mb
%nprocshared=32

#P PBE1PBE/Def2SVP SP  SCF=(YQC,MaxCycle=900) int=(Grid=Superfinegrid) EmpiricalDispersion=GD3BJ SCRF=(PCM,Solvent=DiMethylSulfoxide)

_s_4c3_d

4 1
Pd -0.2064 7.765 -0.3596
Pd 0.0534 -5.9368 0.266
C 4.7453 -2.525 0.0538
C 4.5344 -3.0858 -0.9974
C 4.3545 -3.8495 -2.1701
C 5.2425 -3.7613 -3.2241
C 5.1413 -4.6257 -4.3217
C 4.1867 -5.6114 -4.3671
C 3.256 -5.7331 -3.3192
C 2.2677 -6.7413 -3.2609
C 1.3966 -6.7872 -2.2097
N 1.3989 -5.8515 -1.2258
C 2.3159 -4.9017 -1.2442
C 3.3055 -4.8147 -2.2327
H 6.0367 -3.0315 -3.1907
H 5.8503 -4.5271 -5.1297
H 4.1436 -6.3021 -5.1944
H 2.2152 -7.4789 -4.0457
H 0.6563 -7.5749 -2.1229
H 2.2928 -4.1531 -0.4563
C 5.101 -1.9162 1.2784
C 5.9723 -2.6237 2.1266
C 6.4352 -2.0713 3.3001
C 6.0145 -0.7885 3.6235
N 6.355 -0.0028 4.6929
C 5.7225 1.2029 4.5881
C 5.79 2.3142 5.4206
C 5.0535 3.4248 5.0778
C 4.2496 3.4379 3.9227
C 4.1722 2.3208 3.0909
C 4.9147 1.202 3.422
C 5.1108 -0.0788 2.7957
C 4.6513 -0.6441 1.6165
H 6.2978 -3.6098 1.8316
H 7.1198 -2.6113 3.9359
H 7.0173 -0.252 5.4086
H 6.4124 2.3094 6.3023
H 5.0914 4.3098 5.6944
H 3.5585 2.3408 2.2054
H 3.9833 -0.1063 0.964
C 3.5579 4.6106 3.5771
C 3.0023 5.6322 3.243
C 2.3842 6.8162 2.8124
C 2.5441 8.0313 3.4966
C 1.9301 9.1676 3.0047
C 1.1663 9.0828 1.8493
N 1.0125 7.9241 1.2024
C 1.5966 6.8169 1.6561
H 3.1442 8.0667 4.3923
H 2.0392 10.1145 3.5082
H 0.6644 9.9486 1.4253
H 1.4417 5.904 1.0815
C -0.9901 5.0541 4.8762
C -1.9357 5.6712 4.4407
C -3.0245 6.4729 4.0388
C -4.137 6.5893 4.851
C -5.1703 7.4789 4.5343
C -5.0946 8.2914 3.4302
C -3.9825 8.2062 2.5736
C -3.8062 9.0362 1.4437
C -2.6993 8.8944 0.6571
N -1.7677 7.9345 0.8878
C -1.8943 7.1481 1.9405
C -2.9552 7.2588 2.8503
H -4.2001 5.9964 5.7506
H -6.0262 7.539 5.1892
H -5.875 9.0035 3.2127
H -4.5457 9.7875 1.2172
H -2.5196 9.5434 -0.194
H -1.1385 6.3825 2.0978
C 0.0959 4.4164 5.517
C 0.6498 5.0781 6.6291
C 1.6639 4.5113 7.3673
C 2.1155 3.2543 6.9884
N 3.0614 2.4596 7.5792
C 3.1497 1.2807 6.8972
C 3.9417 0.1688 7.1594
C 3.8325 -0.9125 6.3166
C 2.9478 -0.8982 5.2208
C 2.1546 0.2174 4.9546
C 2.2529 1.3107 5.7976
C 1.5813 2.5833 5.861
C 0.57 3.1715 5.1158
H 0.2568 6.0439 6.9085
H 2.0774 5.019 8.2251
H 3.5632 2.6846 8.4223
H 4.6132 0.1524 8.0041
H 4.4218 -1.7988 6.4956
H 1.4777 0.2186 4.1163
H 0.1394 2.6671 4.2664
C 2.8606 -2.0537 4.4263
C 2.7962 -3.0851 3.7968
C 2.6989 -4.3087 3.1165
C 3.6198 -5.3436 3.345
C 3.463 -6.5462 2.6832
C 2.3984 -6.7058 1.8077
N 1.5267 -5.7178 1.5871
C 1.66 -4.5485 2.2116
H 4.4344 -5.1899 4.0348
H 4.1542 -7.3579 2.8425
H 2.231 -7.6337 1.2666
H 0.9159 -3.7835 1.9937
C -5.149 -3.082 0.6812
C -4.7836 -3.6855 1.6646
C -4.4649 -4.4688 2.7935
C -5.3421 -4.5375 3.8597
C -5.1076 -5.4079 4.9306
C -4.0218 -6.248 4.9385
C -3.101 -6.2114 3.876
C -1.9842 -7.0722 3.7853
C -1.1322 -6.9774 2.7226
N -1.285 -6.0363 1.7564
C -2.3231 -5.2222 1.8031
C -3.2946 -5.2841 2.812
H -6.2286 -3.922 3.8565
H -5.8118 -5.4308 5.7484
H -3.8673 -6.9449 5.7471
H -1.8193 -7.8097 4.5545
H -0.2889 -7.6509 2.6081
H -2.4176 -4.4725 1.0212
C -5.711 -2.4565 -0.4543
C -6.8074 -3.1042 -1.0543
C -7.4727 -2.545 -2.1216
C -7.0365 -1.3095 -2.5808
N -7.5527 -0.5245 -3.5771
C -6.8364 0.6346 -3.6546
C -7.025 1.7324 -4.4861
C -6.1619 2.7951 -4.3552
C -5.1179 2.776 -3.41
C -4.9254 1.6744 -2.5769
C -5.7897 0.6001 -2.6968
C -5.9236 -0.6533 -1.9998
C -5.2516 -1.2342 -0.9345
H -7.1335 -4.0525 -0.6548
H -8.3191 -3.0416 -2.5707
H -8.372 -0.7411 -4.1202
H -7.8303 1.7529 -5.2044
H -6.2846 3.6705 -4.9744
H -4.1265 1.6695 -1.8539
H -4.4147 -0.7403 -0.4687
C -4.2997 3.9134 -3.3054
C -3.6482 4.9303 -3.2302
C -2.9431 6.1391 -3.124
C -3.092 7.155 -4.0815
C -2.4094 8.3448 -3.9163
C -1.5918 8.5104 -2.8075
N -1.4466 7.5401 -1.9008
C -2.0925 6.3834 -2.0411
H -3.7382 6.9972 -4.9304
H -2.5081 9.1419 -4.6352
H -1.0374 9.4289 -2.632
H -1.937 5.6328 -1.2673
C 0.185 4.23 -4.9466
C 1.2368 4.7699 -4.6893
C 2.4168 5.509 -4.4607
C 3.5173 5.3721 -5.2837
C 4.6292 6.2119 -5.1405
C 4.6453 7.2208 -4.2095
C 3.5494 7.3921 -3.3442
C 3.4606 8.4267 -2.386
C 2.3629 8.5207 -1.5783
N 1.3571 7.6093 -1.6145
C 1.4033 6.636 -2.5054
C 2.4442 6.4994 -3.4339
H 3.5107 4.6227 -6.0603
H 5.4736 6.0752 -5.7989
H 5.4863 7.892 -4.1356
H 4.2598 9.1463 -2.3064
H 2.2543 9.3291 -0.8638
H 0.5964 5.9076 -2.5096
C -1.033 3.6427 -5.3568
C -1.8125 4.3487 -6.2912
C -2.9721 3.8137 -6.8066
C -3.3516 2.5501 -6.3748
N -4.4202 1.7826 -6.7565
C -4.3821 0.5909 -6.0907
C -5.2381 -0.501 -6.1789
C -4.9659 -1.6008 -5.3979
C -3.8583 -1.6219 -4.5298
C -3.0036 -0.524 -4.432
C -3.2635 0.5836 -5.2184
C -2.5942 1.8433 -5.4092
C -1.4284 2.3909 -4.8971
H -1.4745 5.3189 -6.6225
H -3.5544 4.3518 -7.5387
H -5.091 2.0325 -7.464
H -6.083 -0.4903 -6.8501
H -5.6021 -2.4711 -5.4497
H -2.1546 -0.5502 -3.7689
H -0.8285 1.8541 -4.1807
C -3.5823 -2.785 -3.792
C -3.3061 -3.7999 -3.194
C -2.9413 -4.9779 -2.5242
C -3.6462 -6.1797 -2.6938
C -3.219 -7.3117 -2.0257
C -2.1068 -7.2354 -1.1993
N -1.4403 -6.0891 -1.0365
C -1.8318 -4.9865 -1.6721
H -4.5071 -6.2088 -3.3431
H -3.7395 -8.2486 -2.1407
H -1.7343 -8.0982 -0.6532
H -1.2437 -4.0841 -1.5066

