! DFT COPT B97-3c TightSCF printbasis  Grid6 NOFINALGRID SlowConv 

%base "_o_1_alde1_3_ami3_1_opt_B97-3c"
%maxcore 3000
%scf
   MaxIter 2000
end
%pal
   nprocs 32
end

* xyzfile 0 1 o_1_alde1_3_ami3_1_opt.xyz
# * xyzfile 0 1 _o_1_alde1_3_ami3_1_opt_B97-3c.xyz
