! DFT COPT B97-3c TightSCF printbasis  Grid6 NOFINALGRID SlowConv 

%base "_o_2_alde1_4_ami4_1_opt_B97-3c"
%maxcore 3000
%scf
   MaxIter 2000
end
%pal
   nprocs 32
end

* xyzfile 0 1 o_2_alde1_4_ami4_1_opt.xyz
# * xyzfile 0 1 _o_2_alde1_4_ami4_1_opt_B97-3c.xyz
