! RI-MP2 cc-pVTZ cc-pVTZ/C TIGHTSCF printbasis Grid6 NOFINALGRID SlowConv

%base "_o_4_alde1_6_ami1_1_opt_MP2"
%maxcore 6000
%pal
   nprocs 12
end

* xyzfile 0 1 _o_4_alde1_6_ami1_1_opt_B97-3c.xyz
