! RI-MP2 cc-pVTZ cc-pVTZ/C TIGHTSCF printbasis Grid6 NOFINALGRID SlowConv

%base "_o_ami2_opt_MP2"
%maxcore 3000
%pal
   nprocs 32
end

* xyzfile 0 1 _o_ami2_opt_B97-3c.xyz
