%chk=trans_l3_lb_FINAL_BROKEN.chk
%nprocshared=48
%mem=120GB
# SP PBE1PBE/def2svp empiricaldispersion=GD3BJ scrf=(solvent=dmso)

trans_l3_lb

4 1
 Pd                 7.68510000    0.30240000   -0.70340000
 Pd                -6.07210000    0.09830000   -0.16550000
 C                  3.61950000   -2.79300000    1.18370000
 C                  4.95250000   -2.79820000    1.58410000
 N                  5.95350000   -3.21790000    0.80880000
 C                  5.63400000   -3.67120000   -0.40550000
 C                  4.33950000   -3.68730000   -0.91440000
 C                  3.28640000   -3.22670000   -0.10840000
 C                  1.91570000   -3.16990000   -0.60760000
 C                  1.40050000   -3.67840000   -1.78630000
 C                  0.03900000   -3.36330000   -1.97880000
 C                 -0.49440000   -2.62550000   -0.93870000
 S                  0.69840000   -2.31770000    0.27590000
 C                 -1.85010000   -2.12420000   -0.77950000
 C                 -2.38580000   -1.85900000    0.49150000
 C                 -3.65760000   -1.33270000    0.59960000
 N                 -4.41240000   -1.05370000   -0.47770000
 C                 -3.94030000   -1.34600000   -1.69930000
 C                 -2.67750000   -1.88270000   -1.88880000
 H                  2.85400000   -2.45220000    1.88440000
 H                  5.21670000   -2.43880000    2.58450000
 H                  6.45880000   -4.03840000   -1.02360000
 H                  4.16740000   -4.04340000   -1.93100000
 H                  1.98380000   -4.27480000   -2.48800000
 H                 -0.54320000   -3.69230000   -2.84000000
 H                 -1.82240000   -2.07470000    1.40120000
 H                 -4.09070000   -1.11850000    1.57800000
 H                 -4.58820000   -1.11530000   -2.54710000
 H                 -2.33010000   -2.06840000   -2.90530000
 C                  3.46190000    0.51540000   -0.35750000
 C                  4.76010000    0.08030000   -0.55270000
 N                  5.77660000    0.93790000   -0.74710000
 C                  5.51950000    2.26040000   -0.78990000
 C                  4.25090000    2.76430000   -0.57060000
 C                  3.18180000    1.89020000   -0.31130000
 C                  1.86090000    2.39680000    0.03670000
 C                  1.55660000    3.52800000    0.77130000
 C                  0.17020000    3.67330000    1.01810000
 C                 -0.57680000    2.67520000    0.43290000
 S                  0.42570000    1.53090000   -0.38370000
 C                 -2.02910000    2.45940000    0.37550000
 C                 -2.66830000    2.37590000   -0.86960000
 C                 -3.97530000    1.92750000   -0.92740000
 N                 -4.65350000    1.55970000    0.17510000
 C                 -4.10140000    1.76430000    1.37930000
 C                 -2.79820000    2.22610000    1.52180000
 H                  2.68030000   -0.22580000   -0.18360000
 H                  5.00310000   -0.98160000   -0.52990000
 H                  6.35870000    2.92660000   -0.99040000
 H                  4.10000000    3.84330000   -0.60640000
 H                  2.31660000    4.21150000    1.15220000
 H                 -0.27280000    4.49910000    1.57530000
 H                 -2.13210000    2.63400000   -1.78420000
 H                 -4.48460000    1.80170000   -1.88540000
 H                 -4.70170000    1.49150000    2.24970000
 H                 -2.36620000    2.31710000    2.51900000
 C                  9.14620000    3.61720000    1.52380000
 C                  8.91950000    2.67230000    0.55910000
 N                  7.99430000    1.68840000    0.73800000
 C                  7.28190000    1.63120000    1.84970000
 C                  7.41840000    2.57410000    2.88740000
 C                  6.62800000    2.50500000    4.07740000
 C                  5.59620000    1.45200000    4.22680000
 C                  4.49290000    1.39120000    3.36180000
 C                  3.56880000    0.35920000    3.45960000
 C                  3.73400000   -0.64660000    4.42870000
 C                  2.85720000   -1.76580000    4.49350000
 C                  2.16800000   -2.76920000    4.53310000
 C                  1.42570000   -3.99010000    4.60680000
 N                  0.36330000   -4.12460000    3.80460000
 C                 -0.33260000   -5.26610000    3.86710000
 C                 -1.48670000   -5.37530000    3.02560000
 C                 -2.49540000   -5.46950000    2.35090000
 C                 -3.69830000   -5.50390000    1.58810000
 C                 -4.91040000   -5.89760000    2.18120000
 C                 -6.10100000   -5.81740000    1.46770000
 C                 -6.10930000   -5.33920000    0.15240000
 C                 -7.37710000   -5.10580000   -0.57820000
 C                 -8.20920000   -6.13010000   -0.98010000
 C                 -9.36750000   -5.86860000   -1.74880000
 C                 -9.69450000   -4.58900000   -2.13690000
 C                 -8.88390000   -3.50480000   -1.72550000
 C                 -9.13930000   -2.15580000   -2.07880000
 C                 -8.32700000   -1.15650000   -1.61410000
 N                 -7.28330000   -1.41390000   -0.77170000
 C                 -7.00430000   -2.66110000   -0.43730000
 C                 -7.74080000   -3.76450000   -0.91470000
 C                 -4.89050000   -5.00450000   -0.45850000
 C                 -3.69790000   -5.08790000    0.24510000
 C                  0.00850000   -6.32460000    4.72650000
 C                  1.11590000   -6.17630000    5.55300000
 C                  1.84120000   -4.99270000    5.50160000
 C                  4.81970000   -0.56560000    5.32020000
 C                  5.73340000    0.47450000    5.22110000
 C                  6.87400000    3.42230000    5.07900000
 C                  7.85350000    4.43020000    4.92620000
 C                  8.59980000    4.53030000    3.77450000
 C                  8.40200000    3.59690000    2.73020000
 H                  9.90270000    4.38570000    1.35830000
 H                  9.46870000    2.66070000   -0.38410000
 H                  6.56730000    0.81150000    1.94110000
 H                  4.35780000    2.16520000    2.60250000
 H                  2.71650000    0.31970000    2.77860000
 H                 -4.91580000   -6.23640000    3.21870000
 H                 -7.04270000   -6.08970000    1.94930000
 H                 -7.95220000   -7.16120000   -0.72850000
 H                 -9.99680000   -6.70610000   -2.05790000
 H                -10.57250000   -4.39750000   -2.75680000
 H                 -9.98180000   -1.90610000   -2.72570000
 H                 -8.48770000   -0.11260000   -1.88390000
 H                 -6.16780000   -2.81950000    0.24270000
 H                 -4.88250000   -4.66020000   -1.49550000
 H                 -2.75650000   -4.81560000   -0.23440000
 H                 -0.59210000   -7.23490000    4.73570000
 H                  1.41010000   -6.97730000    6.23430000
 H                  2.71490000   -4.83120000    6.13410000
 H                  4.94910000   -1.33930000    6.07890000
 H                  6.58630000    0.51500000    5.90200000
 H                  6.28650000    3.38010000    5.99850000
 H                  8.00840000    5.14460000    5.73750000
 H                  9.34870000    5.31570000    3.65600000
 C                  8.19820000   -3.25580000   -2.90410000
 C                  8.31440000   -2.18260000   -2.06070000
 N                  7.40580000   -1.16560000   -2.06950000
 C                  6.40590000   -1.18260000   -2.92880000
 C                  6.18650000   -2.24830000   -3.82460000
 C                  5.04260000   -2.27010000   -4.68350000
 C                  4.13720000   -1.09770000   -4.64600000
 C                  2.88490000   -1.18060000   -4.02610000
 C                  2.15360000   -0.03070000   -3.75230000
 C                  2.66930000    1.23040000   -4.09770000
 C                  2.04850000    2.43030000   -3.65420000
 C                  1.61340000    3.46470000   -3.18350000
 C                  1.19990000    4.66850000   -2.53400000
 N                 -0.08530000    4.77730000   -2.18340000
 C                 -0.46590000    5.87680000   -1.52290000
 C                 -1.84570000    5.94800000   -1.14650000
 C                 -3.01910000    5.96270000   -0.82720000
 C                 -4.38450000    5.86350000   -0.43170000
 C                 -5.42750000    6.17560000   -1.31960000
 C                 -6.74970000    5.93070000   -0.96250000
 C                 -7.05300000    5.36430000    0.27980000
 C                 -8.41050000    4.86860000    0.60990000
 C                 -9.48180000    5.67980000    0.91610000
 C                -10.71790000    5.12310000    1.32430000
 C                -10.88510000    3.76240000    1.45330000
 C                 -9.81650000    2.89280000    1.12920000
 C                 -9.87710000    1.48150000    1.24860000
 C                 -8.80300000    0.71150000    0.88870000
 N                 -7.66730000    1.25740000    0.36000000
 C                 -7.57060000    2.57060000    0.25780000
 C                 -8.59140000    3.45190000    0.66840000
 C                 -6.01470000    5.11780000    1.19070000
 C                 -4.69540000    5.36730000    0.84590000
 C                  0.41740000    6.91500000   -1.18730000
 C                  1.74930000    6.79900000   -1.56840000
 C                  2.15540000    5.66300000   -2.25610000
 C                  3.88300000    1.30580000   -4.80510000
 C                  4.60480000    0.15330000   -5.07480000
 C                  4.82500000   -3.39180000   -5.45480000
 C                  5.73250000   -4.47720000   -5.43050000
 C                  6.85470000   -4.45770000   -4.63280000
 C                  7.10090000   -3.34110000   -3.79970000
 H                  8.93600000   -4.05840000   -2.85820000
 H                  9.12650000   -2.10480000   -1.33400000
 H                  5.72300000   -0.33540000   -2.91460000
 H                  2.50750000   -2.14970000   -3.69710000
 H                  1.20360000   -0.10070000   -3.21850000
 H                 -5.19220000    6.57440000   -2.30790000
 H                 -7.55150000    6.12960000   -1.67690000
 H                 -9.36630000    6.76490000    0.87600000
 H                -11.54400000    5.79480000    1.56790000
 H                -11.83100000    3.34360000    1.80240000
 H                -10.77620000    0.99980000    1.63650000
 H                 -8.81770000   -0.37190000    1.00090000
 H                 -6.65210000    2.96840000   -0.16970000
 H                 -6.24610000    4.68690000    2.16780000
 H                 -3.89040000    5.14420000    1.54830000
 H                  0.05310000    7.78720000   -0.64320000
 H                  2.46530000    7.58790000   -1.32970000
 H                  3.19000000    5.52890000   -2.57490000
 H                  4.27310000    2.28110000   -5.10080000
 H                  5.56980000    0.22480000   -5.58200000
 H                  3.94830000   -3.43710000   -6.10410000
 H                  5.53480000   -5.34440000   -6.06410000
 H                  7.55020000   -5.29890000   -4.62310000

 1 32 1.0 59 1.0 124 1.0
 2 17 1.0 44 1.0 85 1.0 150 1.0
 3 4 1.5 8 1.5 20 1.0
 4 5 1.5 21 1.0
 5 6 1.5
 6 7 1.5 22 1.0
 7 8 1.5 23 1.0
 8 9 1.0
 9 10 2.0 13 1.0
 10 11 1.5 24 1.0
 11 12 2.0 25 1.0
 12 13 1.0 14 1.0
 13
 14 15 1.5 19 1.5
 15 16 2.0 26 1.0
 16 17 1.5 27 1.0
 17 18 1.5
 18 19 2.0 28 1.0
 19 29 1.0
 20
 21
 22
 23
 24
 25
 26
 27
 28
 29
 30 31 2.0 35 1.5 47 1.0
 31 32 1.5 48 1.0
 32 33 1.5
 33 34 2.0 49 1.0
 34 35 1.5 50 1.0
 35 36 1.0
 36 37 2.0 40 1.0
 37 38 1.5 51 1.0
 38 39 2.0 52 1.0
 39 40 1.0 41 1.0
 40
 41 42 1.5 46 1.5
 42 43 2.0 53 1.0
 43 44 1.5 54 1.0
 44 45 1.5
 45 46 1.5 55 1.0
 46 56 1.0
 47
 48
 49
 50
 51
 52
 53
 54
 55
 56
 57 58 2.0 98 1.5 99 1.0
 58 59 1.5 100 1.0
 59 60 2.0
 60 61 1.5 101 1.0
 61 62 1.5 98 1.5
 62 63 1.0 95 2.0
 63 64 1.5 94 1.5
 64 65 1.5 102 1.0
 65 66 1.5 103 1.0
 66 67 1.5 93 1.5
 67 68 3.0
 68 69 1.5
 69 70 1.5 92 1.5
 70 71 1.5
 71 72 1.5 90 1.5
 72 73 3.0
 73 74 1.5
 74 75 1.5 89 1.5
 75 76 1.5 104 1.0
 76 77 1.5 105 1.0
 77 78 1.0 88 1.5
 78 79 2.0 87 1.5
 79 80 1.5 106 1.0
 80 81 2.0 107 1.0
 81 82 1.5 108 1.0
 82 83 1.5 87 1.5
 83 84 2.0 109 1.0
 84 85 1.5 110 1.0
 85 86 2.0
 86 87 1.5 111 1.0
 87
 88 89 1.5 112 1.0
 89 113 1.0
 90 91 1.5 114 1.0
 91 92 1.5 115 1.0
 92 116 1.0
 93 94 1.5 117 1.0
 94 118 1.0
 95 96 1.5 119 1.0
 96 97 2.0 120 1.0
 97 98 1.5 121 1.0
 98
 99
 100
 101
 102
 103
 104
 105
 106
 107
 108
 109
 110
 111
 112
 113
 114
 115
 116
 117
 118
 119
 120
 121
 122 123 2.0 163 1.5 164 1.0
 123 124 1.5 165 1.0
 124 125 2.0
 125 126 1.5 166 1.0
 126 127 1.5 163 1.5
 127 128 1.0 160 2.0
 128 129 1.5 159 1.5
 129 130 1.5 167 1.0
 130 131 1.5 168 1.0
 131 132 1.5 158 1.5
 132 133 3.0
 133 134 1.5
 134 135 1.5 157 1.5
 135 136 1.5
 136 137 1.5 155 1.5
 137 138 3.0
 138 139 1.5
 139 140 1.5 154 1.5
 140 141 1.5 169 1.0
 141 142 1.5 170 1.0
 142 143 1.0 153 1.5
 143 144 2.0 152 1.5
 144 145 1.5 171 1.0
 145 146 2.0 172 1.0
 146 147 1.5 173 1.0
 147 148 1.5 152 1.5
 148 149 2.0 174 1.0
 149 150 1.5 175 1.0
 150 151 2.0
 151 152 1.5 176 1.0
 152
 153 154 1.5 177 1.0
 154 178 1.0
 155 156 1.5 179 1.0
 156 157 1.5 180 1.0
 157 181 1.0
 158 159 1.5 182 1.0
 159 183 1.0
 160 161 1.5 184 1.0
 161 162 2.0 185 1.0
 162 163 1.5 186 1.0
 163
 164
 165
 166
 167
 168
 169
 170
 171
 172
 173
 174
 175
 176
 177
 178
 179
 180
 181
 182
 183
 184
 185
 186

