%chk=_s_5d1_a.chk
%mem=60000mb
%nprocshared=32

#P PBE1PBE/Def2SVP SP  SCF=(YQC,MaxCycle=900) int=(Grid=Superfinegrid) EmpiricalDispersion=GD3BJ SCRF=(PCM,Solvent=DiMethylSulfoxide)

_s_5d1_a

4 1
Pd -0.757 4.8286 -0.4206
Pd -0.2451 -3.9391 -0.113
C 5.7871 1.3035 -0.6645
C 5.6682 2.5056 -0.6039
C 5.2965 3.8629 -0.513
C 6.1888 4.8839 -0.25
C 5.7409 6.2045 -0.1091
C 4.4092 6.5211 -0.2029
C 3.4658 5.5076 -0.4769
C 2.0766 5.7468 -0.5389
N 1.2053 4.7947 -0.7933
C 1.6395 3.5319 -1.0551
C 2.9578 3.1928 -0.9975
C 3.9151 4.1714 -0.665
H 7.2399 4.663 -0.1423
H 6.4647 6.9793 0.0928
H 4.0752 7.5374 -0.0671
H 1.6832 6.7419 -0.36
H 0.881 2.7967 -1.3227
H 3.2833 2.1851 -1.1992
C 5.9193 -0.0992 -0.7621
C 7.0504 -0.6628 -1.3554
C 7.1466 -2.0368 -1.4746
C 6.1398 -2.8537 -0.9913
C 5.0078 -2.3027 -0.3848
C 4.8952 -0.9214 -0.2835
H 7.8391 -0.0231 -1.721
H 8.0152 -2.4751 -1.9418
H 6.2264 -3.9233 -1.1043
H 4.0432 -0.4748 0.2051
C 3.9847 -3.2162 0.1556
C 4.3913 -4.3528 0.8612
C 3.4445 -5.2554 1.3127
C 2.1103 -5.0129 1.0437
N 1.7104 -3.9122 0.3934
C 2.6154 -3.0266 -0.034
H 5.4391 -4.5186 1.0569
H 3.7375 -6.1395 1.8553
H 1.3429 -5.7179 1.3559
H 2.2262 -2.1612 -0.5606
C -0.2039 1.1906 6.0428
C -0.3769 2.3842 5.9504
C -0.5938 3.7348 5.608
C -0.9594 4.7057 6.5199
C -1.2228 6.0166 6.0996
C -1.1509 6.3705 4.776
C -0.7746 5.4094 3.8133
C -0.7279 5.684 2.4301
N -0.378 4.7802 1.5405
C 0.0034 3.54 1.9498
C -0.0293 3.1677 3.2599
C -0.4619 4.0877 4.2352
H -1.0529 4.4518 7.5649
H -1.5028 6.752 6.8384
H -1.3813 7.3765 4.4631
H -0.9998 6.6658 2.0568
H 0.3468 2.8519 1.1784
H 0.2675 2.1774 3.5653
C 0.0255 -0.1992 6.144
C 0.6646 -0.7299 7.2661
C 0.9135 -2.0882 7.3319
C 0.5147 -2.9238 6.3036
C -0.1366 -2.4069 5.1805
C -0.3684 -1.0392 5.0986
H 0.9642 -0.0768 8.0714
H 1.4165 -2.5001 8.1935
H 0.7291 -3.9794 6.3667
H -0.8936 -0.6214 4.2538
C -0.583 -3.3437 4.1334
C -1.1764 -4.5526 4.5095
C -1.5349 -5.4723 3.5396
C -1.2872 -5.173 2.2129
N -0.7465 -4.0047 1.8424
C -0.4089 -3.1039 2.7699
H -1.3586 -4.7614 5.552
H -1.9894 -6.4118 3.8092
H -1.5266 -5.8867 1.4271
H 0.0328 -2.183 2.4035
C -6.8493 0.5957 0.1768
C -6.8739 1.7968 0.0361
C -6.6632 3.1787 -0.1495
C -7.672 4.0732 -0.4496
C -7.3816 5.4244 -0.683
C -6.0935 5.8954 -0.6443
C -5.0346 5.0151 -0.3348
C -3.6813 5.4147 -0.3218
N -2.7016 4.5859 -0.0327
C -2.9825 3.3 0.3127
C -4.2536 2.81 0.309
C -5.3236 3.651 -0.0548
H -8.6928 3.7283 -0.5148
H -8.1935 6.0976 -0.9121
H -5.8816 6.9326 -0.8502
H -3.4089 6.4352 -0.5692
H -2.1397 2.6729 0.6025
H -4.4569 1.7861 0.5778
C -6.8126 -0.8032 0.3669
C -7.8627 -1.4567 1.0145
C -7.7931 -2.8217 1.2226
C -6.7008 -3.5436 0.7749
C -5.6484 -2.9031 0.1153
C -5.7022 -1.5279 -0.0757
H -8.7185 -0.8924 1.352
H -8.5988 -3.3283 1.7317
H -6.6583 -4.6063 0.9568
H -4.9141 -1.0167 -0.6064
C -4.5291 -3.7228 -0.3835
C -4.8052 -4.9407 -1.0124
C -3.7627 -5.7533 -1.4218
C -2.464 -5.3415 -1.1864
N -2.1906 -4.1638 -0.6098
C -3.19 -3.3641 -0.2251
H -5.8279 -5.239 -1.1822
H -3.9542 -6.6974 -1.9056
H -1.622 -5.971 -1.4659
H -2.9013 -2.4279 0.2415
C -0.7894 0.7279 -6.612
C -0.7528 1.9369 -6.6035
C -0.6959 3.3238 -6.3548
C -0.4198 4.2647 -7.3275
C -0.3138 5.6228 -6.997
C -0.4548 6.0562 -5.703
C -0.7436 5.1271 -4.6804
C -0.8498 5.4885 -3.3205
N -1.1161 4.6141 -2.3743
C -1.3502 3.3142 -2.7012
C -1.2485 2.8593 -3.9815
C -0.8982 3.753 -5.0126
H -0.2744 3.952 -8.3503
H -0.1006 6.3326 -7.7816
H -0.3449 7.1008 -5.4585
H -0.696 6.5178 -3.0137
H -1.633 2.646 -1.8889
H -1.4278 1.8236 -4.2207
C -0.8622 -0.6826 -6.6175
C -1.4252 -1.3558 -7.7033
C -1.5233 -2.7345 -7.676
C -1.0484 -3.4488 -6.5903
C -0.4713 -2.7879 -5.5025
C -0.3918 -1.4006 -5.5144
H -1.7843 -0.7962 -8.5534
H -1.9674 -3.2572 -8.5094
H -1.1453 -4.5234 -6.581
H 0.0736 -0.8706 -4.6979
C 0.0625 -3.597 -4.3918
C 0.7893 -4.7555 -4.6829
C 1.2347 -5.5637 -3.6517
C 0.9404 -5.2057 -2.3493
N 0.2712 -4.0816 -2.0607
C -0.1525 -3.2874 -3.0483
H 1.0058 -5.0117 -5.7081
H 1.7922 -6.4635 -3.8553
H 1.2471 -5.8352 -1.5164
H -0.6969 -2.3985 -2.7468

