%chk=_s_4d2_c.chk
%mem=60000mb
%nprocshared=32

#P PBE1PBE/Def2SVP SP  SCF=(YQC,MaxCycle=900) int=(Grid=Superfinegrid) EmpiricalDispersion=GD3BJ SCRF=(PCM,Solvent=DiMethylSulfoxide)

_s_4d2_c

4 1
Pd 0.4669 3.6007 0.2441
Pd 1.3526 -5.6117 1.2515
C 6.8431 -2.9242 1.1298
C 6.7596 -4.1299 1.1851
C 6.763 -5.5369 1.1266
C 7.9701 -6.2116 1.0871
C 8.017 -7.5981 0.9079
C 6.8667 -8.3261 0.732
C 5.6157 -7.6842 0.7765
C 4.3964 -8.3694 0.5742
C 3.2149 -7.6929 0.66
N 3.1623 -6.3771 0.9826
C 4.2795 -5.6951 1.1434
C 5.549 -6.2808 1.0174
H 8.8907 -5.6561 1.1803
H 8.977 -8.091 0.8852
H 6.9079 -9.3897 0.5569
H 4.4136 -9.4237 0.3489
H 2.2607 -8.1814 0.4736
H 4.1899 -4.6416 1.3971
C 6.936 -1.5252 0.9669
C 8.1907 -0.9105 0.9024
C 8.2751 0.4486 0.6621
C 7.1308 1.2065 0.4793
C 5.8702 0.6078 0.5465
C 5.7835 -0.7597 0.8017
H 9.085 -1.5004 1.032
H 9.244 0.9212 0.6059
H 7.2251 2.2562 0.2502
H 4.8232 -1.2402 0.898
C 4.6479 1.3899 0.3387
C 4.5427 2.7276 0.7333
C 3.3484 3.3979 0.5646
N 2.2694 2.8046 0.0459
C 2.3575 1.537 -0.3761
C 3.5207 0.8103 -0.2595
H 5.3762 3.2328 1.1934
H 3.2334 4.4379 0.8558
H 1.4529 1.1192 -0.8156
H 3.5698 -0.1969 -0.6405
C 1.9775 -2.8166 6.6335
C 2.0023 -4.0249 6.5783
C 1.9203 -5.4299 6.6246
C 2.0239 -6.0774 7.8427
C 1.8268 -7.4586 7.9454
C 1.4912 -8.2073 6.845
C 1.386 -7.5937 5.5834
C 1.0159 -8.3001 4.4168
C 0.9608 -7.6506 3.2182
N 1.2978 -6.3435 3.0935
C 1.6144 -5.6419 4.1644
C 1.6423 -6.1976 5.453
H 2.2446 -5.5044 8.7302
H 1.9187 -7.9301 8.9119
H 1.3033 -9.2658 6.934
H 0.7756 -9.3488 4.4876
H 0.6437 -8.1548 2.3079
H 1.8749 -4.5961 4.018
C 1.8482 -1.4129 6.7077
C 1.9271 -0.7688 7.9467
C 1.7174 0.5958 8.0229
C 1.4244 1.3303 6.8863
C 1.3485 0.7022 5.6405
C 1.5732 -0.6711 5.5607
H 2.1423 -1.3404 8.8364
H 1.7718 1.0913 8.9803
H 1.2215 2.3855 6.979
H 1.5613 -1.1746 4.6074
C 1.0209 1.4606 4.4295
C 1.4156 2.7909 4.2539
C 1.1228 3.4403 3.0721
N 0.4818 2.8331 2.0693
C 0.0616 1.5717 2.2279
C 0.299 0.866 3.3856
H 1.9696 3.3066 5.0211
H 1.4099 4.4743 2.9047
H -0.4777 1.1416 1.3851
H -0.0826 -0.1361 3.4953
C -5.023 0.912 0.3609
C -4.9391 2.1179 0.3122
C -4.9427 3.5246 0.3785
C -6.1501 4.1985 0.4248
C -6.1973 5.584 0.612
C -5.0469 6.3115 0.7889
C -3.7957 5.6706 0.7375
C -2.5762 6.3553 0.9402
C -1.3945 5.6799 0.8477
N -1.3421 4.3658 0.5181
C -2.4594 3.6841 0.3564
C -3.7289 4.2685 0.4887
H -7.0706 3.643 0.331
H -7.1574 6.0762 0.64
H -5.0881 7.3741 0.97
H -2.5933 7.4084 1.171
H -0.4402 6.168 1.0342
H -2.3698 2.632 0.0967
C -5.1161 -0.4878 0.5163
C -6.3706 -1.1038 0.5696
C -6.4555 -2.4641 0.8028
C -5.3117 -3.222 0.9895
C -4.0513 -2.622 0.9336
C -3.9641 -1.2532 0.6854
H -7.2646 -0.5141 0.437
H -7.4243 -2.9378 0.8504
H -5.4067 -4.2728 1.213
H -3.0035 -0.7715 0.598
C -2.8296 -3.4039 1.1453
C -2.7207 -4.7395 0.7447
C -1.5267 -5.4094 0.9172
N -0.4512 -4.8176 1.445
C -0.5434 -3.5523 1.873
C -1.7066 -2.8262 1.7533
H -3.5509 -5.2433 0.2772
H -1.4089 -6.4479 0.6214
H 0.3581 -3.1358 2.32
H -1.759 -1.8212 2.1394
C -0.1327 0.807 -5.1439
C -0.1618 2.0152 -5.0875
C -0.0844 3.4205 -5.1323
C -0.1846 4.0686 -6.3504
C 0.008 5.4505 -6.4512
C 0.3358 6.1995 -5.3487
C 0.4374 5.5853 -4.0871
C 0.8 6.292 -2.9184
C 0.8524 5.6418 -1.7201
N 0.5195 4.3334 -1.5977
C 0.2098 3.6315 -2.6705
C 0.1855 4.1882 -3.9588
H -0.3992 3.4954 -7.2394
H -0.0811 5.9224 -7.4178
H 0.5203 7.2587 -5.436
H 1.0369 7.3417 -2.9873
H 1.164 6.1465 -0.8082
H -0.0475 2.5848 -2.5262
C 0.0016 -0.5962 -5.2184
C -0.0644 -1.2392 -6.4587
C 0.1498 -2.6031 -6.5344
C 0.4347 -3.3381 -5.396
C 0.4978 -2.711 -4.149
C 0.2684 -1.3385 -4.0698
H -0.2732 -0.6672 -7.3497
H 0.1053 -3.0977 -7.4928
H 0.6414 -4.3925 -5.4879
H 0.2703 -0.8359 -3.1159
C 0.8175 -3.4696 -2.936
C 0.4254 -4.8012 -2.7646
C 0.7113 -5.4509 -1.5813
N 1.343 -4.8428 -0.5732
C 1.7603 -3.5799 -0.7272
C 1.5293 -2.8737 -1.8859
H -0.1212 -5.3178 -3.5366
H 0.426 -6.4859 -1.4169
H 2.2916 -3.1487 0.1202
H 1.9081 -1.8702 -1.9917

