%chk=trans_l3_lc_FINAL.chk
%nprocshared=48
%mem=120GB
# SP PBE1PBE/def2svp empiricaldispersion=GD3BJ scrf=(solvent=dmso)

trans_l3_lc

4 1
 Pd                 7.22990000    0.70010000    0.30220000
 Pd                -6.99460000    0.63160000    0.04860000
 C                  3.13900000    1.34440000    0.39430000
 C                  4.46910000    1.15970000    0.10240000
 N                  5.37770000    0.89540000    1.05220000
 C                  4.99040000    0.82490000    2.33460000
 C                  3.66610000    0.97540000    2.70310000
 C                  2.69700000    1.22740000    1.72190000
 C                  1.28930000    1.33860000    2.03930000
 C                  0.66630000    1.33270000    3.27430000
 C                 -0.73170000    1.44600000    3.17760000
 C                 -1.16930000    1.55910000    1.86800000
 S                  0.14630000    1.50190000    0.76150000
 C                 -2.52090000    1.65040000    1.36350000
 C                 -2.80410000    1.72760000   -0.01060000
 C                 -4.11510000    1.66490000   -0.48160000
 N                 -5.15850000    1.56050000    0.35630000
 C                 -4.90590000    1.62720000    1.68230000
 C                 -3.63230000    1.68390000    2.21760000
 H                  2.45350000    1.55970000   -0.42590000
 H                  4.82330000    1.22240000   -0.93060000
 H                  5.75940000    0.61450000    3.07950000
 H                  3.40330000    0.88060000    3.75670000
 H                  1.20120000    1.25220000    4.22090000
 H                 -1.39580000    1.45320000    4.04170000
 H                 -1.99990000    1.77300000   -0.74740000
 H                 -4.32960000    1.66000000   -1.55150000
 H                 -5.77460000    1.58290000    2.34250000
 H                 -3.52270000    1.70950000    3.30120000
 C                  1.82010000   -2.31070000    0.25110000
 C                  3.10850000   -2.19950000    0.76080000
 N                  4.19960000   -2.12260000    0.00240000
 C                  4.03240000   -2.16860000   -1.32230000
 C                  2.78310000   -2.27890000   -1.93620000
 C                  1.62470000   -2.35340000   -1.13830000
 C                  0.26700000   -2.44640000   -1.69360000
 C                 -0.18420000   -2.64750000   -2.99300000
 C                 -1.59880000   -2.60040000   -3.10080000
 C                 -2.19830000   -2.37500000   -1.87440000
 S                 -1.07960000   -2.24090000   -0.63230000
 C                 -3.50150000   -2.07720000   -1.40630000
 C                 -3.65740000   -1.96330000   -0.01570000
 C                 -4.82870000   -1.42690000    0.50130000
 N                 -5.80340000   -1.00070000   -0.31650000
 C                 -5.69420000   -1.23170000   -1.64220000
 C                 -4.58430000   -1.78580000   -2.22750000
 H                  0.97900000   -2.37300000    0.94500000
 H                  3.25720000   -2.17660000    1.84540000
 H                  4.94510000   -2.10940000   -1.92550000
 H                  2.72120000   -2.29710000   -3.02400000
 H                  0.47820000   -2.82680000   -3.83930000
 H                 -2.14440000   -2.72460000   -4.03600000
 H                 -2.86370000   -2.24910000    0.67640000
 H                 -4.96490000   -1.27570000    1.57360000
 H                 -6.52740000   -0.90090000   -2.26640000
 H                 -4.54680000   -1.90150000   -3.31020000
 C                -10.09370000    3.49310000   -0.81690000
 C                 -9.53240000    4.75660000   -0.51180000
 C                 -8.17280000    4.76400000   -0.09520000
 C                 -7.47560000    5.98830000    0.10470000
 C                 -8.18600000    7.16820000    0.01700000
 C                 -9.56090000    7.16060000   -0.32530000
 C                -10.22250000    5.98770000   -0.61670000
 C                 -6.01330000    5.91520000    0.29850000
 C                 -5.36800000    6.42370000    1.43060000
 C                 -3.99610000    6.26330000    1.58800000
 C                 -3.23550000    5.59930000    0.60740000
 C                 -1.83500000    5.40810000    0.76930000
 C                 -0.63760000    5.23040000    0.89350000
 C                  0.76450000    5.07270000    1.08680000
 C                  1.27910000    5.05080000    2.39580000
 C                  2.64740000    4.91720000    2.60550000
 C                  3.51600000    4.81660000    1.52490000
 C                  3.01710000    4.83450000    0.20680000
 C                  3.94990000    4.72810000   -0.86700000
 C                  4.84800000    4.61370000   -1.68260000
 C                  6.00820000    4.38160000   -2.47860000
 C                  7.22350000    4.99060000   -2.11610000
 C                  8.42180000    4.55240000   -2.66800000
 C                  8.43160000    3.49790000   -3.58790000
 C                  9.66250000    2.67720000   -3.73390000
 C                  9.81710000    1.67450000   -2.72560000
 C                 10.92960000    0.78730000   -2.72020000
 C                 10.98460000   -0.19020000   -1.69060000
 C                  9.98960000   -0.26700000   -0.74780000
 N                  8.94220000    0.59920000   -0.76950000
 C                  8.86280000    1.52650000   -1.70260000
 C                 11.90240000    0.92740000   -3.74030000
 C                 11.74710000    1.90180000   -4.70160000
 C                 10.63040000    2.77710000   -4.70560000
 C                  7.20900000    3.00180000   -4.06440000
 C                  6.00530000    3.43940000   -3.52330000
 C                  1.63810000    4.95070000   -0.00410000
 C                 -3.88150000    5.11730000   -0.54350000
 C                 -5.25010000    5.27190000   -0.68880000
 C                 -7.53130000    3.53260000    0.13850000
 N                 -8.09180000    2.36700000   -0.12300000
 C                 -9.35350000    2.35340000   -0.65150000
 H                -11.11070000    3.41860000   -1.20560000
 H                 -7.67400000    8.12090000    0.16720000
 H                -10.09140000    8.11250000   -0.39710000
 H                -11.26820000    5.99440000   -0.93070000
 H                 -5.94990000    6.92330000    2.20790000
 H                 -3.50190000    6.64370000    2.48340000
 H                  0.59380000    5.13910000    3.23970000
 H                  3.04190000    4.89460000    3.62310000
 H                  4.59080000    4.71560000    1.68660000
 H                  7.22980000    5.75520000   -1.33730000
 H                  9.36690000    4.95950000   -2.30190000
 H                 11.81520000   -0.89650000   -1.64820000
 H                  9.99580000   -1.01530000    0.04420000
 H                  7.99690000    2.19940000   -1.66640000
 H                 12.76610000    0.26040000   -3.75550000
 H                 12.49810000    2.00720000   -5.48740000
 H                 10.54030000    3.53180000   -5.48920000
 H                  7.20650000    2.18930000   -4.79470000
 H                  5.06430000    2.98840000   -3.84330000
 H                  1.24150000    4.96180000   -1.02050000
 H                 -3.29970000    4.61610000   -1.31880000
 H                 -5.74230000    4.88660000   -1.58530000
 H                 -6.52210000    3.53280000    0.54400000
 H                 -9.75350000    1.38160000   -0.93650000
 C                -10.75640000   -0.96150000    1.37270000
 C                -10.77390000   -2.29680000    0.89590000
 C                 -9.61390000   -2.74860000    0.20730000
 C                 -9.46900000   -4.12240000   -0.15920000
 C                -10.54860000   -4.96220000    0.02500000
 C                -11.74040000   -4.49110000    0.62530000
 C                -11.84790000   -3.19780000    1.08840000
 C                 -8.13660000   -4.60020000   -0.59270000
 C                 -7.07350000   -4.40100000    0.30430000
 C                 -5.78060000   -4.76360000   -0.02420000
 C                 -5.50320000   -5.33660000   -1.27680000
 C                 -4.15150000   -5.63610000   -1.60640000
 C                 -2.97380000   -5.85150000   -1.83060000
 C                 -1.59380000   -6.06920000   -2.10530000
 C                 -1.18360000   -6.47640000   -3.38790000
 C                  0.16720000   -6.65620000   -3.66410000
 C                  1.12370000   -6.43260000   -2.68040000
 C                  0.73350000   -6.02240000   -1.39190000
 C                  1.73150000   -5.75480000   -0.41220000
 C                  2.64240000   -5.50330000    0.35580000
 C                  3.74790000   -5.12920000    1.16920000
 C                  5.02110000   -4.97060000    0.59230000
 C                  6.08030000   -4.48620000    1.34540000
 C                  5.90330000   -4.16510000    2.69620000
 C                  7.01920000   -3.62380000    3.50420000
 C                  7.65740000   -2.38930000    3.16750000
 C                  8.72830000   -1.90450000    3.98330000
 C                  9.32160000   -0.66780000    3.63990000
 C                  8.85390000    0.04100000    2.57180000
 N                  7.81570000   -0.42860000    1.81840000
 C                  7.23110000   -1.58950000    2.07990000
 C                  9.14770000   -2.64420000    5.11210000
 C                  8.50630000   -3.81720000    5.43070000
 C                  7.44530000   -4.29910000    4.63290000
 C                  4.65140000   -4.38100000    3.28880000
 C                  3.58250000   -4.85000000    2.53730000
 C                 -0.62930000   -5.84720000   -1.10910000
 C                 -6.56870000   -5.56590000   -2.16940000
 C                 -7.87100000   -5.20590000   -1.82740000
 C                 -8.62200000   -1.80150000   -0.10890000
 N                 -8.64360000   -0.55360000    0.32420000
 C                 -9.68120000   -0.15020000    1.11670000
 H                -11.58860000   -0.57770000    1.96490000
 H                -10.46400000   -6.01710000   -0.24530000
 H                -12.57000000   -5.18700000    0.76630000
 H                -12.74710000   -2.85980000    1.60680000
 H                 -7.27080000   -3.95160000    1.28080000
 H                 -4.96760000   -4.59960000    0.68490000
 H                 -1.93450000   -6.64600000   -4.16110000
 H                  0.47960000   -6.97250000   -4.66140000
 H                  2.18450000   -6.56640000   -2.89920000
 H                  5.16370000   -5.20250000   -0.46430000
 H                  7.05860000   -4.35000000    0.87900000
 H                 10.14360000   -0.26700000    4.23480000
 H                  9.27590000    1.00340000    2.28290000
 H                  6.38030000   -1.86510000    1.43110000
 H                  9.96970000   -2.26550000    5.72270000
 H                  8.81830000   -4.39010000    6.30630000
 H                  6.95840000   -5.23840000    4.90190000
 H                  4.50850000   -4.14290000    4.34550000
 H                  2.60150000   -4.97770000    2.99810000
 H                 -0.93930000   -5.51240000   -0.11750000
 H                 -6.36440000   -6.01610000   -3.14230000
 H                 -8.68500000   -5.37220000   -2.53640000
 H                 -7.78730000   -2.10680000   -0.73150000
 H                 -9.62470000    0.86160000    1.51730000

 1 5 1.0 86 1.0 152 1.0
 2 17 1.0 44 1.0 97 1.0 163 1.0
 3 4 2.0 8 1.5 20 1.0
 4 5 1.5 21 1.0
 5 6 1.5
 6 7 2.0 22 1.0
 7 8 1.5 23 1.0
 8 9 1.5
 9 10 2.0 13 1.0
 10 11 1.5 24 1.0
 11 12 2.0 25 1.0
 12 13 1.0 14 1.5
 13
 14 15 1.5 19 1.5
 15 16 1.5 26 1.0
 16 17 1.5 27 1.0
 17 18 1.5
 18 19 2.0 28 1.0
 19 29 1.0
 20
 21
 22
 23
 24
 25
 26
 27
 28
 29
 30 31 1.5 35 1.5 47 1.0
 31 32 1.5 48 1.0
 32 33 1.5
 33 34 1.5 49 1.0
 34 35 1.5 50 1.0
 35 36 1.0
 36 37 1.5 40 1.0
 37 38 1.5 51 1.0
 38 39 2.0 52 1.0
 39 40 1.0 41 1.5
 40
 41 42 1.5 46 1.5
 42 43 1.5 53 1.0
 43 44 1.5 54 1.0
 44 45 1.5
 45 46 2.0 55 1.0
 46 56 1.0
 47
 48
 49
 50
 51
 52
 53
 54
 55
 56
 57 58 1.5 98 2.0 99 1.0
 58 59 1.5 63 1.5
 59 60 1.5 96 1.5
 60 61 2.0 64 1.0
 61 62 1.5 100 1.0
 62 63 2.0 101 1.0
 63 102 1.0
 64 65 1.5 95 1.5
 65 66 1.5 103 1.0
 66 67 1.5 104 1.0
 67 68 1.5 94 1.5
 68 69 3.0
 69 70 1.5
 70 71 1.5 93 1.5
 71 72 1.5 105 1.0
 72 73 1.5 106 1.0
 73 74 1.5 107 1.0
 74 75 1.5 93 1.5
 75 76 3.0
 76 77 1.5
 77 78 1.5 92 1.5
 78 79 1.5 108 1.0
 79 80 1.5 109 1.0
 80 81 1.0 91 1.5
 81 82 1.5 90 2.0
 82 83 1.5 87 1.5
 83 84 1.5 88 1.5
 84 85 2.0 110 1.0
 85 86 1.5 111 1.0
 86 87 2.0
 87 112 1.0
 88 89 2.0 113 1.0
 89 90 1.5 114 1.0
 90 115 1.0
 91 92 1.5 116 1.0
 92 117 1.0
 93 118 1.0
 94 95 2.0 119 1.0
 95 120 1.0
 96 97 2.0 121 1.0
 97 98 1.5
 98 122 1.0
 99
 100
 101
 102
 103
 104
 105
 106
 107
 108
 109
 110
 111
 112
 113
 114
 115
 116
 117
 118
 119
 120
 121
 122
 123 124 1.5 164 2.0 165 1.0
 124 125 1.5 129 1.5
 125 126 1.5 162 1.5
 126 127 2.0 130 1.0
 127 128 1.5 166 1.0
 128 129 2.0 167 1.0
 129 168 1.0
 130 131 1.5 161 1.5
 131 132 2.0 169 1.0
 132 133 1.5 170 1.0
 133 134 1.5 160 1.5
 134 135 3.0
 135 136 1.5
 136 137 1.5 159 1.5
 137 138 1.5 171 1.0
 138 139 1.5 172 1.0
 139 140 1.5 173 1.0
 140 141 1.5 159 1.5
 141 142 3.0
 142 143 1.5
 143 144 1.5 158 1.5
 144 145 1.5 174 1.0
 145 146 1.5 175 1.0
 146 147 1.0 157 1.5
 147 148 1.5 156 2.0
 148 149 1.5 153 1.5
 149 150 1.5 154 1.5
 150 151 2.0 176 1.0
 151 152 1.5 177 1.0
 152 153 1.5
 153 178 1.0
 154 155 2.0 179 1.0
 155 156 1.5 180 1.0
 156 181 1.0
 157 158 1.5 182 1.0
 158 183 1.0
 159 184 1.0
 160 161 1.5 185 1.0
 161 186 1.0
 162 163 2.0 187 1.0
 163 164 1.5
 164 188 1.0
 165
 166
 167
 168
 169
 170
 171
 172
 173
 174
 175
 176
 177
 178
 179
 180
 181
 182
 183
 184
 185
 186
 187
 188

