%chk=cis_l3_ld_FINAL.chk
%nprocshared=48
%mem=120GB
# SP PBE1PBE/def2svp empiricaldispersion=GD3BJ scrf=(solvent=dmso)

cis_l3_ld

4 1
 Pd                 6.65460000   -2.36710000   -0.12760000
 Pd                -6.63480000   -2.38210000    0.10110000
 C                  2.82800000   -2.03990000   -1.85230000
 C                  4.10530000   -1.76010000   -1.40910000
 N                  5.07590000   -2.68770000   -1.38850000
 C                  4.81880000   -3.90370000   -1.89510000
 C                  3.56120000   -4.26290000   -2.35010000
 C                  2.50520000   -3.33850000   -2.28120000
 C                  1.12900000   -3.71880000   -2.56450000
 C                  0.63640000   -4.90630000   -3.07890000
 C                 -0.77290000   -4.96300000   -3.08870000
 C                 -1.35930000   -3.81320000   -2.59220000
 S                 -0.16370000   -2.66560000   -2.10940000
 C                 -2.76170000   -3.51670000   -2.33010000
 C                 -3.22250000   -2.19170000   -2.26180000
 C                 -4.48990000   -1.93620000   -1.77510000
 N                 -5.31080000   -2.91850000   -1.36900000
 C                 -4.93780000   -4.19460000   -1.55160000
 C                 -3.68440000   -4.53300000   -2.03570000
 H                  2.08060000   -1.24550000   -1.81960000
 H                  4.34890000   -0.76960000   -1.01920000
 H                  5.64040000   -4.62280000   -1.89340000
 H                  3.40500000   -5.28230000   -2.70220000
 H                  1.27240000   -5.71760000   -3.43370000
 H                 -1.34430000   -5.81620000   -3.45550000
 H                 -2.58470000   -1.35260000   -2.54410000
 H                 -4.84360000   -0.90990000   -1.65540000
 H                 -5.64600000   -4.96480000   -1.23970000
 H                 -3.40660000   -5.58560000   -2.09640000
 C                  3.25710000   -2.33540000    2.27560000
 C                  4.52580000   -2.04870000    1.80850000
 N                  5.33460000   -2.99590000    1.30760000
 C                  4.94870000   -4.27960000    1.37480000
 C                  3.69430000   -4.64930000    1.83140000
 C                  2.78290000   -3.65590000    2.22300000
 C                  1.38000000   -3.96810000    2.46360000
 C                  0.79620000   -5.15620000    2.86300000
 C                 -0.61290000   -5.10220000    2.85770000
 C                 -1.10800000   -3.87710000    2.44430000
 S                  0.18190000   -2.78560000    2.08010000
 C                 -2.48650000   -3.48440000    2.19000000
 C                 -2.83000000   -2.15100000    1.91030000
 C                 -4.10840000   -1.84520000    1.48540000
 N                 -5.05940000   -2.78170000    1.34410000
 C                 -4.78270000   -4.04380000    1.70910000
 C                 -3.52440000   -4.43020000    2.13660000
 H                  2.62880000   -1.52010000    2.63780000
 H                  4.89010000   -1.01940000    1.78860000
 H                  5.64790000   -5.02590000    0.99320000
 H                  3.40680000   -5.70050000    1.79630000
 H                  1.36970000   -6.03540000    3.15810000
 H                 -1.24730000   -5.94110000    3.14500000
 H                 -2.09760000   -1.34500000    1.98090000
 H                 -4.36720000   -0.81980000    1.21400000
 H                 -5.58930000   -4.77270000    1.60740000
 H                 -3.35070000   -5.48100000    2.36720000
 C                 -9.79390000   -1.59230000    2.86160000
 C                 -9.58450000   -0.23520000    3.21640000
 C                 -8.38610000    0.39160000    2.76060000
 C                 -8.09470000    1.74950000    3.10760000
 C                 -9.04820000    2.45350000    3.81930000
 C                -10.24920000    1.84270000    4.24440000
 C                -10.51090000    0.51850000    3.97460000
 C                 -6.79700000    2.36500000    2.75290000
 C                 -5.59550000    1.72310000    3.09850000
 C                 -4.36890000    2.29910000    2.80630000
 C                 -4.30300000    3.55080000    2.16280000
 C                 -3.03150000    4.13950000    1.92280000
 C                 -1.90720000    4.60020000    1.80210000
 C                 -0.57380000    5.03860000    1.72180000
 C                 -0.06280000    6.32310000    1.61730000
 C                  1.34620000    6.36060000    1.61070000
 C                  1.92170000    5.10400000    1.71230000
 C                  3.27010000    4.71280000    1.78930000
 C                  4.39100000    4.24410000    1.91080000
 C                  5.61940000    3.56740000    2.14520000
 C                  5.57770000    2.35120000    2.85570000
 C                  6.73840000    1.63050000    3.08180000
 C                  7.97710000    2.08950000    2.60380000
 C                  9.18670000    1.26160000    2.80290000
 C                  9.19560000   -0.10130000    2.36550000
 C                 10.31200000   -0.94680000    2.63670000
 C                 10.24080000   -2.29300000    2.19490000
 C                  9.15340000   -2.73110000    1.48510000
 N                  8.13140000   -1.88850000    1.17130000
 C                  8.14600000   -0.63860000    1.59490000
 C                 11.43430000   -0.40730000    3.30850000
 C                 11.43620000    0.92100000    3.67080000
 C                 10.31960000    1.75170000    3.42280000
 C                  8.02330000    3.31630000    1.92760000
 C                  6.86260000    4.04830000    1.69830000
 S                  0.70570000    3.86860000    1.80540000
 C                 -5.50390000    4.19410000    1.81180000
 C                 -6.72950000    3.60790000    2.10650000
 C                 -7.55110000   -0.35240000    1.90430000
 N                 -7.79780000   -1.60500000    1.56690000
 C                 -8.89450000   -2.24330000    2.05900000
 H                -10.68170000   -2.11960000    3.21410000
 H                 -8.85130000    3.49220000    4.09300000
 H                -10.96760000    2.43240000    4.81790000
 H                -11.42770000    0.04280000    4.32810000
 H                 -5.62280000    0.77000000    3.63230000
 H                 -3.44530000    1.79410000    3.09520000
 H                 -0.70240000    7.20280000    1.55070000
 H                  1.93760000    7.27330000    1.54030000
 H                  4.62130000    1.98080000    3.22910000
 H                  6.68780000    0.69590000    3.64550000
 H                 11.05950000   -2.98240000    2.40690000
 H                  9.06660000   -3.75770000    1.12710000
 H                  7.30950000   -0.00550000    1.29300000
 H                 12.29060000   -1.04940000    3.52320000
 H                 12.30610000    1.34330000    4.17840000
 H                 10.33910000    2.79050000    3.75940000
 H                  8.97840000    3.68780000    1.54940000
 H                  6.91240000    4.99260000    1.15380000
 H                 -5.46640000    5.15980000    1.30490000
 H                 -7.65250000    4.11550000    1.81770000
 H                 -6.67730000    0.12290000    1.45520000
 H                 -9.02820000   -3.28390000    1.76110000
 C                -10.23980000   -2.24910000   -2.17650000
 C                -10.32170000   -0.89330000   -2.58560000
 C                 -9.20500000   -0.04940000   -2.30960000
 C                 -9.20660000    1.32190000   -2.72060000
 C                -10.34960000    1.82020000   -3.31540000
 C                -11.46680000    0.99120000   -3.56490000
 C                -11.45490000   -0.34440000   -3.23090000
 C                 -7.99760000    2.15120000   -2.52670000
 C                 -6.76200000    1.69960000   -3.01940000
 C                 -5.60210000    2.42440000   -2.80280000
 C                 -5.64160000    3.63820000   -2.08830000
 C                 -4.41330000    4.31770000   -1.86180000
 C                 -3.29220000    4.78710000   -1.74590000
 C                 -1.94320000    5.17770000   -1.67370000
 C                 -1.36600000    6.43490000   -1.58680000
 C                  0.04270000    6.39560000   -1.59610000
 C                  0.55190000    5.10920000   -1.68780000
 C                  1.88490000    4.66870000   -1.76330000
 C                  3.00960000    4.20770000   -1.87830000
 C                  4.28290000    3.62070000   -2.11320000
 C                  5.48110000    4.26730000   -1.75910000
 C                  6.70860000    3.68530000   -2.05290000
 C                  6.78140000    2.44330000   -2.70090000
 C                  8.08310000    1.83970000   -3.06150000
 C                  8.38700000    0.48090000   -2.72890000
 C                  9.59080000   -0.12960000   -3.19290000
 C                  9.81300000   -1.48880000   -2.85470000
 C                  8.91940000   -2.15770000   -2.06080000
 N                  7.81660000   -1.53550000   -1.56090000
 C                  7.55860000   -0.28100000   -1.88170000
 C                 10.50970000    0.64030000   -3.94370000
 C                 10.23560000    1.96470000   -4.19980000
 C                  9.02940000    2.55940000   -3.76730000
 C                  5.58250000    1.79650000   -3.04640000
 C                  4.35370000    2.36900000   -2.75580000
 S                 -0.72880000    3.94030000   -1.75600000
 C                 -6.88240000    4.11280000   -1.62790000
 C                 -8.04200000    3.37610000   -1.84670000
 C                 -8.14450000   -0.59920000   -1.56230000
 N                 -8.11980000   -1.85900000   -1.16970000
 C                 -9.14160000   -2.69890000   -1.49150000
 H                -11.05840000   -2.93690000   -2.39440000
 H                -10.37640000    2.86510000   -3.63200000
 H                -12.34500000    1.42060000   -4.05200000
 H                -12.31130000   -0.98560000   -3.44780000
 H                 -6.71270000    0.76740000   -3.58710000
 H                 -4.64800000    2.05900000   -3.18690000
 H                 -1.95630000    7.34900000   -1.52590000
 H                  0.68350000    7.27520000   -1.53960000
 H                  5.43990000    5.23230000   -1.25100000
 H                  7.62970000    4.19610000   -1.76360000
 H                 10.70540000   -2.00360000   -3.21390000
 H                  9.06210000   -3.20080000   -1.77630000
 H                  6.67990000    0.18030000   -1.42790000
 H                 11.43050000    0.17650000   -4.30270000
 H                 10.94770000    2.56690000   -4.76800000
 H                  8.82240000    3.59880000   -4.03080000
 H                  5.61280000    0.84340000   -3.57990000
 H                  3.43220000    1.86090000   -3.04580000
 H                 -6.93090000    5.05590000   -1.08120000
 H                 -8.99460000    3.74240000   -1.45750000
 H                 -7.30780000    0.03010000   -1.25340000
 H                 -9.04570000   -3.73340000   -1.15930000

 1 5 1.0 32 1.0 85 1.0 148 1.0
 2 17 1.0 44 1.0 96 1.0 159 1.0
 3 4 2.0 8 1.5 20 1.0
 4 5 1.5 21 1.0
 5 6 1.5
 6 7 2.0 22 1.0
 7 8 1.5 23 1.0
 8 9 1.0
 9 10 2.0 13 1.0
 10 11 1.5 24 1.0
 11 12 2.0 25 1.0
 12 13 1.0 14 1.0
 13
 14 15 1.5 19 1.5
 15 16 2.0 26 1.0
 16 17 1.5 27 1.0
 17 18 1.5
 18 19 2.0 28 1.0
 19 29 1.0
 20
 21
 22
 23
 24
 25
 26
 27
 28
 29
 30 31 2.0 35 1.5 47 1.0
 31 32 1.5 48 1.0
 32 33 1.5
 33 34 2.0 49 1.0
 34 35 1.5 50 1.0
 35 36 1.0
 36 37 2.0 40 1.0
 37 38 1.5 51 1.0
 38 39 2.0 52 1.0
 39 40 1.0 41 1.0
 40
 41 42 1.5 46 1.5
 42 43 2.0 53 1.0
 43 44 1.5 54 1.0
 44 45 1.5
 45 46 2.0 55 1.0
 46 56 1.0
 47
 48
 49
 50
 51
 52
 53
 54
 55
 56
 57 58 1.5 97 2.0 98 1.0
 58 59 1.5 63 1.5
 59 60 1.5 95 1.5
 60 61 2.0 64 1.0
 61 62 1.5 99 1.0
 62 63 2.0 100 1.0
 63 101 1.0
 64 65 1.5 94 1.5
 65 66 1.5 102 1.0
 66 67 1.5 103 1.0
 67 68 1.5 93 1.5
 68 69 3.0
 69 70 1.5
 70 71 1.5 92 1.0
 71 72 1.5 104 1.0
 72 73 2.0 105 1.0
 73 74 1.5 92 1.0
 74 75 3.0
 75 76 1.5
 76 77 1.5 91 1.5
 77 78 2.0 106 1.0
 78 79 1.5 107 1.0
 79 80 1.0 90 1.5
 80 81 1.5 89 2.0
 81 82 1.5 86 1.5
 82 83 1.5 87 1.5
 83 84 2.0 108 1.0
 84 85 1.5 109 1.0
 85 86 2.0
 86 110 1.0
 87 88 2.0 111 1.0
 88 89 1.5 112 1.0
 89 113 1.0
 90 91 1.5 114 1.0
 91 115 1.0
 92
 93 94 1.5 116 1.0
 94 117 1.0
 95 96 2.0 118 1.0
 96 97 1.5
 97 119 1.0
 98
 99
 100
 101
 102
 103
 104
 105
 106
 107
 108
 109
 110
 111
 112
 113
 114
 115
 116
 117
 118
 119
 120 121 1.5 160 2.0 161 1.0
 121 122 1.5 126 1.5
 122 123 1.5 158 1.5
 123 124 2.0 127 1.0
 124 125 1.5 162 1.0
 125 126 2.0 163 1.0
 126 164 1.0
 127 128 1.5 157 1.5
 128 129 2.0 165 1.0
 129 130 1.5 166 1.0
 130 131 1.5 156 1.5
 131 132 3.0
 132 133 1.5
 133 134 1.5 155 1.0
 134 135 1.5 167 1.0
 135 136 1.5 168 1.0
 136 137 1.5 155 1.0
 137 138 3.0
 138 139 1.5
 139 140 1.5 154 1.5
 140 141 1.5 169 1.0
 141 142 1.5 170 1.0
 142 143 1.0 153 1.5
 143 144 1.5 152 2.0
 144 145 1.5 149 1.5
 145 146 1.5 150 1.5
 146 147 2.0 171 1.0
 147 148 1.5 172 1.0
 148 149 2.0
 149 173 1.0
 150 151 2.0 174 1.0
 151 152 1.5 175 1.0
 152 176 1.0
 153 154 1.5 177 1.0
 154 178 1.0
 155
 156 157 1.5 179 1.0
 157 180 1.0
 158 159 2.0 181 1.0
 159 160 1.5
 160 182 1.0
 161
 162
 163
 164
 165
 166
 167
 168
 169
 170
 171
 172
 173
 174
 175
 176
 177
 178
 179
 180
 181
 182

