%chk=_s_4c3_a.chk
%mem=60000mb
%nprocshared=32

#P PBE1PBE/Def2SVP SP  SCF=(YQC,MaxCycle=900) int=(Grid=Superfinegrid) EmpiricalDispersion=GD3BJ SCRF=(PCM,Solvent=DiMethylSulfoxide)

_s_4c3_a

4 1
Pd -0.5266 6.8358 -1.6022
Pd 0.2374 -7.0854 0.8855
C 4.2383 4.1237 0.3952
C 3.7176 4.8519 1.2093
C 3.2034 5.8106 2.1074
C 3.8179 6.0485 3.3213
C 3.4093 7.1106 4.1371
C 2.407 7.9634 3.7465
C 1.7401 7.7487 2.5267
C 0.7198 8.5955 2.0374
C 0.1186 8.3229 0.8419
N 0.4331 7.2221 0.1121
C 1.3867 6.4118 0.5341
C 2.1099 6.639 1.7136
H 4.6415 5.4233 3.6301
H 3.9157 7.2714 5.0767
H 2.1247 8.8041 4.3605
H 0.43 9.4624 2.6095
H -0.6427 8.9727 0.422
H 1.6063 5.5329 -0.0687
C 4.9311 3.3746 -0.5825
C 5.8551 4.0705 -1.3839
C 6.612 3.4208 -2.333
C 6.433 2.0519 -2.4801
N 7.064 1.179 -3.3267
C 6.5878 -0.0835 -3.11
C 6.9549 -1.28 -3.7157
C 6.3247 -2.4312 -3.3021
C 5.3304 -2.4009 -2.3048
C 4.9542 -1.2001 -1.7023
C 5.5902 -0.0371 -2.1016
C 5.4934 1.3405 -1.693
C 4.7386 2.0053 -0.7379
H 5.9788 5.1319 -1.2325
H 7.3328 3.9573 -2.9297
H 7.8043 1.4184 -3.9654
H 7.7168 -1.3081 -4.4796
H 6.5908 -3.3791 -3.7447
H 4.1973 -1.1872 -0.9346
H 4.0315 1.4773 -0.1187
C 4.7347 -3.6127 -1.9127
C 4.2498 -4.6727 -1.5875
C 3.7004 -5.905 -1.1977
C 4.3343 -7.1201 -1.5014
C 3.7587 -8.304 -1.0803
C 2.5662 -8.2656 -0.3721
N 1.9608 -7.1087 -0.0925
C 2.4984 -5.9565 -0.4849
H 5.2612 -7.1177 -2.0533
H 4.2267 -9.2508 -1.296
H 2.0785 -9.1713 -0.0203
H 1.9636 -5.0439 -0.2259
C -2.2117 4.2481 3.5323
C -3.0786 4.732 2.8403
C -4.1154 5.3945 2.1508
C -5.399 5.3941 2.6623
C -6.4105 6.159 2.0714
C -6.1548 6.9532 0.9817
C -4.8642 6.9819 0.4239
C -4.5124 7.809 -0.6667
C -3.2401 7.7843 -1.1601
N -2.2919 6.9481 -0.6637
C -2.5771 6.1758 0.3684
C -3.8372 6.1691 0.9854
H -5.6129 4.814 3.5465
H -7.3997 6.1422 2.5031
H -6.9287 7.5685 0.5505
H -5.2533 8.4641 -1.0964
H -2.9272 8.4314 -1.9744
H -1.791 5.5221 0.7398
C -1.2036 3.8074 4.4193
C -0.7709 4.728 5.3923
C 0.1868 4.3902 6.3222
C 0.713 3.1061 6.2734
N 1.6547 2.5237 7.0801
C 1.845 1.2288 6.6891
C 2.6803 0.2589 7.2323
C 2.67 -0.9928 6.6614
C 1.8467 -1.2838 5.5559
C 1.0187 -0.3077 5.0002
C 1.0139 0.9534 5.5716
C 0.2854 2.1667 5.3022
C -0.6763 2.5208 4.3666
H -1.2107 5.7136 5.4074
H 0.5097 5.0984 7.0696
H 2.1029 2.9664 7.8652
H 3.3094 0.4769 8.0818
H 3.2985 -1.7729 7.0634
H 0.3889 -0.5409 4.1568
H -1.0193 1.8173 3.6252
C 1.8567 -2.5921 5.0414
C 1.8756 -3.7347 4.643
C 1.8685 -5.0677 4.2018
C 2.4691 -6.0921 4.9506
C 2.4067 -7.3921 4.4857
C 1.7524 -7.656 3.2909
N 1.1911 -6.6783 2.5754
C 1.2417 -5.4189 3.0021
H 2.9658 -5.8567 5.8789
H 2.8562 -8.198 5.0428
H 1.6725 -8.6635 2.8906
H 0.7683 -4.6622 2.3784
C -4.8178 2.9557 -2.3085
C -4.3555 3.3544 -3.3531
C -3.9093 3.9211 -4.5649
C -4.4569 3.5419 -5.7746
C -4.1138 4.2075 -6.9571
C -3.2452 5.2704 -6.9508
C -2.6537 5.6842 -5.744
C -1.7802 6.7908 -5.6435
C -1.2403 7.1289 -4.4358
N -1.4774 6.4034 -3.3131
C -2.3012 5.3729 -3.3651
C -2.9556 4.9824 -4.5419
H -5.1787 2.7404 -5.8002
H -4.5706 3.8942 -7.8835
H -3.0149 5.8031 -7.86
H -1.5522 7.3689 -6.5248
H -0.5919 7.9912 -4.3173
H -2.4642 4.8101 -2.4482
C -5.4388 2.5607 -1.1026
C -6.3947 3.4326 -0.5496
C -7.0887 3.1021 0.5931
C -6.81 1.8812 1.1927
N -7.3627 1.3135 2.3104
C -6.7965 0.0875 2.5212
C -7.0622 -0.8492 3.514
C -6.3486 -2.026 3.4981
C -5.371 -2.273 2.515
C -5.0996 -1.3327 1.5205
C -5.8198 -0.1509 1.5198
C -5.8327 1.004 0.6601
C -5.1459 1.3432 -0.4956
H -6.5965 4.3682 -1.0483
H -7.8364 3.7655 0.9984
H -8.1085 1.7101 2.858
H -7.81 -0.6645 4.27
H -6.5338 -2.7778 4.2503
H -4.3555 -1.5335 0.7667
H -4.4136 0.6789 -0.9253
C -4.6705 -3.4917 2.5404
C -4.0761 -4.5453 2.57
C -3.3742 -5.7615 2.5882
C -3.8313 -6.8724 3.3138
C -3.0966 -8.043 3.2861
C -1.922 -8.092 2.5491
N -1.4862 -7.0313 1.8652
C -2.1806 -5.8964 1.8721
H -4.747 -6.8036 3.8801
H -3.4268 -8.9127 3.8307
H -1.3116 -8.9898 2.5009
H -1.7822 -5.0651 1.2919
C 1.118 2.712 -5.4089
C 2.0313 3.401 -5.0151
C 3.0673 4.2941 -4.6722
C 4.3368 4.1486 -5.1959
C 5.3186 5.1217 -4.9771
C 5.0457 6.2616 -4.2629
C 3.7706 6.4464 -3.6996
C 3.3941 7.6072 -2.9865
C 2.1386 7.7096 -2.4599
N 1.2341 6.7009 -2.5528
C 1.5432 5.6104 -3.2302
C 2.7804 5.4364 -3.8663
H 4.5618 3.287 -5.805
H 6.2969 4.9828 -5.4114
H 5.7944 7.0273 -4.134
H 4.1022 8.4121 -2.8706
H 1.8064 8.6013 -1.9377
H 0.7976 4.82 -3.282
C 0.0467 1.9759 -5.9627
C -0.6653 2.5698 -7.0212
C -1.6906 1.9053 -7.6566
C -2.0091 0.6281 -7.2148
N -2.961 -0.2416 -7.6782
C -2.9055 -1.3996 -6.9541
C -3.6594 -2.5606 -7.0856
C -3.396 -3.6017 -6.2247
C -2.4023 -3.494 -5.2327
C -1.6487 -2.3279 -5.0951
C -1.8966 -1.2793 -5.9635
C -1.3155 0.0267 -6.1353
C -0.2798 0.7021 -5.5076
H -0.3824 3.5585 -7.3484
H -2.217 2.3583 -8.4819
H -3.5674 -0.0776 -8.4648
H -4.4223 -2.6479 -7.8441
H -3.9576 -4.5201 -6.3034
H -0.8844 -2.2571 -4.338
H 0.2706 0.2517 -4.6975
C -2.1652 -4.5882 -4.3822
C -1.9628 -5.5375 -3.6597
C -1.7048 -6.6314 -2.8176
C -2.126 -7.931 -3.1387
C -1.8262 -8.9681 -2.2753
C -1.1208 -8.7014 -1.1107
N -0.7292 -7.4624 -0.8035
C -1.0044 -6.4493 -1.6208
H -2.6723 -8.1076 -4.052
H -2.1337 -9.9766 -2.4994
H -0.862 -9.4859 -0.4044
H -0.6588 -5.4604 -1.3226

