%chk=_s_5d3_b.chk
%mem=60000mb
%nprocshared=32

#P PBE1PBE/Def2SVP SP  SCF=(YQC,MaxCycle=900) int=(Grid=Superfinegrid) EmpiricalDispersion=GD3BJ SCRF=(PCM,Solvent=DiMethylSulfoxide)

_s_5d3_b

4 1
Pd 0.5777 5.5934 0.0838
Pd 0.3488 -5.2394 -0.1606
C 7.2834 -1.4815 -0.094
C 6.8572 -2.6126 -0.1223
C 6.3969 -3.9434 -0.1554
C 7.3015 -4.9908 -0.1883
C 6.868 -6.3211 -0.2212
C 5.5315 -6.6257 -0.2216
C 4.5773 -5.5864 -0.1886
C 3.1928 -5.8376 -0.1875
N 2.2961 -4.8754 -0.1573
C 2.6891 -3.577 -0.1253
C 4.0099 -3.2259 -0.1232
C 5.0023 -4.2273 -0.1551
H 8.3592 -4.7751 -0.1885
H 7.6041 -7.1098 -0.2463
H 5.201 -7.6519 -0.247
H 2.8283 -6.8617 -0.2126
H 1.8865 -2.8407 -0.1014
H 4.3126 -2.1914 -0.0976
C 7.7809 -0.1615 -0.0605
C 9.1617 0.0644 -0.0586
C 9.6506 1.3583 -0.0254
C 8.785 2.4375 0.0062
C 7.4038 2.2197 0.0043
C 6.9025 0.9193 -0.029
H 9.8411 -0.7743 -0.0832
H 10.7173 1.527 -0.024
H 9.1706 3.4454 0.0321
H 5.837 0.7529 -0.0304
C 6.5088 3.309 0.0354
C 5.7213 4.2253 0.0611
C 4.7939 5.284 0.0892
C 5.2017 6.6242 0.1251
C 4.2391 7.6182 0.15
C 2.8983 7.2652 0.1385
N 2.5144 5.9856 0.1045
C 3.4222 5.0144 0.0806
H 6.2527 6.8676 0.1328
H 4.5244 8.6574 0.1776
H 2.1077 8.0136 0.1566
H 3.0557 3.9908 0.0536
C -0.0499 2.1633 6.9532
C -0.0605 3.3223 6.6093
C -0.0934 4.6488 6.1367
C -0.3731 5.7109 6.9775
C -0.4367 7.0203 6.4859
C -0.2351 7.2877 5.1561
C 0.0579 6.2323 4.2663
C 0.2567 6.436 2.8865
N 0.5374 5.4536 2.0589
C 0.6631 4.184 2.5245
C 0.4725 3.8776 3.8406
C 0.1463 4.8989 4.756
H -0.5491 5.5258 8.0264
H -0.656 7.8242 7.1719
H -0.2973 8.2976 4.7828
H 0.1779 7.4341 2.4651
H 0.9286 3.4261 1.7865
H 0.5676 2.8653 4.1989
C -0.038 0.806 7.339
C -0.0979 0.4524 8.6906
C -0.0843 -0.8823 9.0559
C -0.0109 -1.8742 8.0943
C 0.0471 -1.5285 6.7396
C 0.0323 -0.1874 6.3632
H -0.1529 1.224 9.4436
H -0.1304 -1.1511 10.1008
H 0.0004 -2.9136 8.3849
H 0.0739 0.0798 5.319
C 0.1294 -2.5455 5.7655
C 0.2073 -3.4167 4.9309
C 0.3231 -4.5039 4.0434
C 0.5198 -5.7983 4.5454
C 0.6462 -6.8529 3.6597
C 0.5742 -6.6015 2.2995
N 0.3794 -5.3667 1.8226
C 0.2556 -4.3372 2.6565
H 0.5734 -5.9581 5.6109
H 0.8004 -7.8578 4.0182
H 0.675 -7.404 1.5689
H 0.098 -3.3592 2.2111
C -6.4298 2.0981 -0.0557
C -6.0236 3.2364 -0.0281
C -5.5197 4.5511 0.0042
C -6.3701 5.6423 0.0174
C -5.8669 6.9485 0.0494
C -4.5167 7.185 0.0687
C -3.6152 6.0988 0.056
C -2.219 6.2741 0.0741
N -1.3763 5.2621 0.0622
C -1.8402 3.9893 0.0318
C -3.177 3.7107 0.0121
C -4.1123 4.7647 0.0236
H -7.4377 5.4825 0.0027
H -6.5614 7.7745 0.0589
H -4.1355 8.1934 0.0933
H -1.7924 7.2755 0.0988
H -1.0854 3.2076 0.0242
H -3.5349 2.6942 -0.0122
C -6.8914 0.7651 -0.0877
C -8.2631 0.4929 -0.1094
C -8.7067 -0.8175 -0.1405
C -7.8041 -1.8661 -0.1504
C -6.4305 -1.6018 -0.129
C -5.9753 -0.2853 -0.0977
H -8.9707 1.3083 -0.1017
H -9.7669 -1.0229 -0.1572
H -8.1551 -2.8865 -0.1747
H -4.9162 -0.0818 -0.081
C -5.5095 -2.6697 -0.1392
C -4.7112 -3.5774 -0.1476
C -3.8356 -4.6799 -0.1594
C -4.3381 -5.9891 -0.1793
C -3.4516 -7.0501 -0.1912
C -2.0898 -6.7919 -0.1835
N -1.6133 -5.5446 -0.1646
C -2.4485 -4.5068 -0.1524
H -5.4041 -6.1549 -0.1852
H -3.8093 -8.0668 -0.2065
H -1.361 -7.5983 -0.1925
H -2.002 -3.5139 -0.1368
C 0.0413 2.4729 -6.94
C 0.0312 3.6157 -6.5454
C -0.0026 4.9201 -6.0151
C -0.2632 6.0199 -6.8126
C -0.3283 7.3067 -6.2645
C -0.1474 7.5139 -4.9211
C 0.1256 6.4186 -4.0742
C 0.3029 6.56 -2.6837
N 0.5653 5.5404 -1.8961
C 0.6923 4.292 -2.4153
C 0.5216 4.045 -3.7466
C 0.2155 5.1076 -4.621
H -0.4228 5.8823 -7.8713
H -0.5322 8.1413 -6.9177
H -0.2107 8.5066 -4.5045
H 0.2222 7.5389 -2.2198
H 0.9417 3.5007 -1.7074
H 0.6175 3.049 -4.1477
C 0.0514 1.1341 -7.3859
C 0.0086 0.8417 -8.7527
C 0.0195 -0.4753 -9.1773
C 0.0734 -1.5097 -8.2603
C 0.1144 -1.2255 -6.8907
C 0.1024 0.0976 -6.4547
H -0.0315 1.6467 -9.4711
H -0.0135 -0.6967 -10.2338
H 0.0825 -2.5352 -8.597
H 0.1308 0.3175 -5.3992
C 0.1769 -2.2857 -5.9624
C 0.2379 -3.1943 -5.1673
C 0.3351 -4.3213 -4.3285
C 0.5155 -5.595 -4.8865
C 0.6251 -6.6891 -4.0479
C 0.553 -6.4968 -2.678
N 0.3733 -5.2818 -2.1477
C 0.2655 -4.215 -2.9357
H 0.5701 -5.7085 -5.9579
H 0.7667 -7.6793 -4.4499
H 0.6412 -7.332 -1.9833
H 0.1196 -3.2555 -2.4481

