%chk=_s_5b4_a.chk
%mem=60000mb
%nprocshared=32

#P PBE1PBE/Def2SVP SP  SCF=(YQC,MaxCycle=900) int=(Grid=Superfinegrid) EmpiricalDispersion=GD3BJ SCRF=(PCM,Solvent=DiMethylSulfoxide)

_s_5b4_a

4 1
Pd -2.0151 5.8661 -0.0003
Pd -0.089 -7.4833 -0.2798
C 4.3689 1.8085 1.1618
C 4.1664 2.9882 1.3395
C 3.7848 4.3382 1.4628
C 4.6741 5.3437 1.7934
C 4.2526 6.6773 1.8732
C 2.9524 7.0294 1.6145
C 2.0129 6.0332 1.2701
C 0.67 6.3246 0.967
N -0.2005 5.3889 0.6457
C 0.1759 4.0882 0.6016
C 1.4569 3.7044 0.8675
C 2.4237 4.6713 1.2038
H 5.7062 5.0977 1.9921
H 4.9732 7.4357 2.1381
H 2.6392 8.0596 1.6696
H 0.3026 7.3482 0.9882
H -0.595 3.371 0.3419
H 1.7433 2.6666 0.8168
C 4.516 0.4362 0.8804
C 3.4313 -0.4226 1.1009
C 3.506 -1.7465 0.7312
C 4.6678 -2.2394 0.1265
C 5.7673 -1.3903 -0.0559
C 5.6941 -0.0668 0.319
H 2.5362 -0.0337 1.5607
H 2.6692 -2.4062 0.8966
H 6.6695 -1.7775 -0.505
H 6.5363 0.5908 0.1646
C 4.7468 -3.5681 -0.3306
C 4.8212 -4.6921 -0.7736
C 5.0495 -5.9688 -1.3165
C 6.3192 -6.2787 -1.7762
C 6.6061 -7.5308 -2.3255
C 5.6337 -8.4951 -2.4235
C 4.331 -8.2259 -1.969
C 3.2915 -9.1803 -2.0348
C 2.0509 -8.8659 -1.5656
N 1.7623 -7.6481 -1.0382
C 2.7045 -6.7271 -0.9677
C 4.0187 -6.9516 -1.4101
H 7.1001 -5.5372 -1.7049
H 7.6074 -7.7352 -2.6727
H 5.8549 -9.4632 -2.8445
H 3.4913 -10.1544 -2.4515
H 1.2358 -9.5857 -1.6017
H 2.4248 -5.7673 -0.5424
C -1.0048 1.7092 5.752
C -1.254 2.8907 5.8429
C -1.4956 4.2721 5.7118
C -1.2524 5.1921 6.715
C -1.4073 6.564 6.4787
C -1.7625 7.0413 5.2415
C -2.0246 6.1362 4.1913
C -2.3078 6.5482 2.8698
N -2.552 5.6952 1.8999
C -2.5908 4.3604 2.1658
C -2.2874 3.8602 3.3966
C -1.9398 4.7387 4.4415
H -0.9298 4.8511 7.687
H -1.2177 7.2547 7.2861
H -1.8413 8.1017 5.0625
H -2.3222 7.6025 2.6135
H -2.878 3.6948 1.3485
H -2.297 2.7991 3.5847
C -0.6717 0.3521 5.5741
C -1.0143 -0.2826 4.3722
C -0.6383 -1.5864 4.1374
C 0.0953 -2.2867 5.1005
C 0.4185 -1.6603 6.3124
C 0.039 -0.3575 6.5481
H -1.5755 0.2598 3.6273
H -0.9033 -2.0711 3.211
H 0.9739 -2.2055 7.0608
H 0.2952 0.1244 7.4797
C 0.5286 -3.6101 4.8944
C 0.932 -4.7434 4.7533
C 1.4539 -6.0473 4.8341
C 2.0639 -6.4116 6.0255
C 2.5837 -7.6925 6.2183
C 2.4943 -8.6383 5.2273
C 1.8875 -8.3132 4.0024
C 1.7551 -9.2551 2.958
C 1.1614 -8.8901 1.7878
N 0.6998 -7.629 1.5675
C 0.7954 -6.7249 2.5235
C 1.3681 -7.0033 3.7782
H 2.1305 -5.6862 6.8218
H 3.0506 -7.9356 7.1603
H 2.8822 -9.6339 5.3748
H 2.1219 -10.259 3.1001
H 1.0368 -9.6077 0.9763
H 0.4049 -5.7359 2.3066
C -5.2502 1.4492 -3.6593
C -5.2409 2.6119 -3.995
C -5.0532 3.9971 -4.1977
C -5.033 4.5933 -5.4428
C -4.6992 5.9479 -5.5815
C -4.3239 6.7033 -4.5001
C -4.3277 6.1297 -3.2103
C -3.7961 6.7793 -2.0745
N -3.7867 6.23 -0.8761
C -4.4249 5.0404 -0.6871
C -4.8956 4.2951 -1.7308
C -4.7685 4.7867 -3.0481
H -5.2649 4.0086 -6.32
H -4.707 6.3869 -6.5674
H -4.0145 7.729 -4.6228
H -3.3458 7.7606 -2.1726
H -4.6046 4.7505 0.3438
H -5.3489 3.3304 -1.5665
C -5.214 0.1302 -3.1554
C -6.346 -0.4236 -2.5486
C -6.2636 -1.648 -1.9229
C -5.048 -2.3446 -1.8859
C -3.9292 -1.8105 -2.5328
C -4.0122 -0.5866 -3.1618
H -7.2796 0.1189 -2.5618
H -7.1341 -2.0701 -1.4439
H -2.9997 -2.3567 -2.5265
H -3.1491 -0.1657 -3.6536
C -4.9955 -3.5561 -1.1692
C -4.9975 -4.5686 -0.5048
C -5.2292 -5.7206 0.2692
C -6.5221 -5.9359 0.722
C -6.8554 -7.0688 1.4669
C -5.907 -8.0169 1.7603
C -4.583 -7.8409 1.3233
C -3.5737 -8.7961 1.5749
C -2.306 -8.5807 1.1225
N -1.9558 -7.4507 0.4538
C -2.873 -6.5357 0.196
C -4.2168 -6.6759 0.5851
H -7.287 -5.2125 0.4854
H -7.8729 -7.198 1.8024
H -6.1629 -8.9021 2.321
H -3.8183 -9.6958 2.1165
H -1.5213 -9.3147 1.2905
H -2.5492 -5.6481 -0.3401
C 1.5557 1.773 -5.0757
C 1.6118 2.9749 -4.9488
C 1.5718 4.353 -4.6518
C 2.4553 5.2676 -5.1924
C 2.4112 6.6164 -4.8155
C 1.5076 7.0665 -3.8869
C 0.582 6.1655 -3.3176
C -0.3426 6.5459 -2.3262
N -1.2047 5.7 -1.8028
C -1.252 4.414 -2.2358
C -0.3835 3.9411 -3.1739
C 0.5908 4.8004 -3.7213
H 3.1941 4.9371 -5.9066
H 3.1147 7.3038 -5.2594
H 1.4957 8.1017 -3.5857
H -0.3724 7.5644 -1.9522
H -2.0291 3.785 -1.8022
H -0.4252 2.9141 -3.4982
C 1.3833 0.3752 -5.1525
C 1.4262 -0.3811 -3.9746
C 1.123 -1.7243 -4.0013
C 0.7596 -2.3366 -5.2058
C 0.7697 -1.5906 -6.3915
C 1.0815 -0.2487 -6.3667
H 1.6892 0.1032 -3.0471
H 1.1455 -2.3053 -3.0931
H 0.5133 -2.0698 -7.3243
H 1.0702 0.3303 -7.2779
C 0.3281 -3.6761 -5.2482
C -0.1236 -4.798 -5.3004
C -0.6782 -6.0719 -5.5178
C -1.0045 -6.4386 -6.8137
C -1.5744 -7.6825 -7.0945
C -1.8268 -8.5831 -6.0891
C -1.5069 -8.2571 -4.7598
C -1.7286 -9.1486 -3.6862
C -1.3738 -8.7886 -2.4202
N -0.8182 -7.58 -2.1399
C -0.6098 -6.7143 -3.1135
C -0.9269 -6.9905 -4.4541
H -0.8139 -5.7467 -7.6197
H -1.8161 -7.9312 -8.1165
H -2.2664 -9.5441 -6.3045
H -2.1693 -10.1134 -3.8809
H -1.5285 -9.4607 -1.5766
H -0.1687 -5.7605 -2.8396

