%chk=_s_4b3_d.chk
%mem=60000mb
%nprocshared=32

#P PBE1PBE/Def2SVP SP  SCF=(YQC,MaxCycle=900) int=(Grid=Superfinegrid) EmpiricalDispersion=GD3BJ SCRF=(PCM,Solvent=DiMethylSulfoxide)

_s_4b3_d

4 1
Pd -0.5669 6.9392 0.0269
Pd 0.5147 -6.9501 -0.0293
C 5.0753 -2.6151 -0.171
C 5.3142 -3.8013 -0.1525
C 5.7042 -5.1532 -0.1397
C 7.0526 -5.4676 -0.1391
C 7.4851 -6.7967 -0.1387
C 6.5829 -7.8318 -0.1374
C 5.2033 -7.5602 -0.1309
C 4.226 -8.5818 -0.1226
C 2.9015 -8.2551 -0.1068
N 2.4819 -6.9637 -0.0968
C 3.3596 -5.9833 -0.1089
C 4.7458 -6.2102 -0.1298
H 7.7802 -4.6705 -0.144
H 8.5443 -7.0036 -0.1412
H 6.9182 -8.8569 -0.1396
H 4.5408 -9.6133 -0.127
H 2.1256 -9.0263 -0.1008
H 2.9736 -4.9692 -0.0981
C 4.7916 -1.2356 -0.1825
C 5.7476 -0.3266 0.2869
C 5.4769 1.0245 0.2913
C 4.2432 1.4934 -0.1729
C 3.2933 0.5858 -0.6573
C 3.5648 -0.7638 -0.6626
H 6.6967 -0.692 0.6491
H 6.2124 1.7246 0.6576
H 2.3517 0.955 -1.0316
H 2.8412 -1.4663 -1.0438
C 3.9372 2.8675 -0.1447
C 3.639 4.0391 -0.1133
C 3.2195 5.3825 -0.0735
C 4.1196 6.4578 -0.0386
C 3.6217 7.7472 -0.0029
C 2.248 7.95 0.0018
N 1.3979 6.9261 -0.0271
C 1.8524 5.6737 -0.0651
H 5.1824 6.2719 -0.0421
H 4.2885 8.5938 0.022
H 1.817 8.944 0.0291
H 1.1128 4.8666 -0.0874
C -0.1559 2.9485 4.8713
C -0.2513 4.1442 5.0327
C -0.3579 5.5149 5.3288
C -0.3779 5.9221 6.6523
C -0.48 7.2739 6.9916
C -0.5648 8.2405 6.0199
C -0.5506 7.874 4.6626
C -0.6376 8.8216 3.6168
C -0.6222 8.4036 2.3184
N -0.5244 7.0897 1.9893
C -0.4398 6.1764 2.9329
C -0.4465 6.4995 4.2996
H -0.3118 5.1803 7.4335
H -0.4915 7.5537 8.0339
H -0.6433 9.2834 6.2835
H -0.7166 9.8694 3.8593
H -0.6886 9.116 1.4907
H -0.3639 5.141 2.6178
C -0.0467 1.5566 4.6913
C -0.1098 0.7097 5.8053
C -0.0051 -0.655 5.6476
C 0.1644 -1.2001 4.3703
C 0.2306 -0.3531 3.2566
C 0.1268 1.0101 3.4145
H -0.2417 1.1341 6.7892
H -0.0544 -1.3068 6.5067
H 0.3674 -0.7832 2.278
H 0.1834 1.6658 2.5606
C 0.2677 -2.5907 4.1802
C 0.3573 -3.7787 3.9713
C 0.458 -5.1441 3.646
C 0.5412 -6.155 4.615
C 0.6377 -7.4714 4.2031
C 0.6475 -7.7646 2.8459
N 0.5671 -6.8016 1.9302
C 0.4758 -5.5249 2.3008
H 0.5299 -5.8998 5.6632
H 0.7043 -8.2699 4.9242
H 0.7207 -8.7823 2.4809
H 0.4144 -4.7697 1.5102
C -4.649 -3.3772 0.2491
C -4.7056 -4.586 0.2691
C -4.8816 -5.9813 0.2926
C -6.1611 -6.501 0.3944
C -6.3818 -7.881 0.4111
C -5.3335 -8.7639 0.3273
C -4.0164 -8.282 0.227
C -2.8958 -9.1399 0.1414
C -1.641 -8.6119 0.0537
N -1.4264 -7.271 0.0472
C -2.4429 -6.4386 0.121
C -3.7741 -6.8775 0.2107
H -7.0011 -5.8263 0.4583
H -7.3931 -8.2495 0.4897
H -5.5058 -9.8286 0.3381
H -3.0468 -10.2077 0.1481
H -0.7574 -9.2531 -0.0153
H -2.2185 -5.377 0.1134
C -4.5793 -1.9713 0.2267
C -5.7054 -1.2143 0.5731
C -5.6481 0.1624 0.5569
C -4.462 0.81 0.1943
C -3.3383 0.0529 -0.1598
C -3.3962 -1.322 -0.1439
H -6.6185 -1.7168 0.8547
H -6.5159 0.7453 0.8263
H -2.4316 0.559 -0.4498
H -2.5368 -1.9101 -0.4227
C -4.3776 2.215 0.1881
C -4.2676 3.4194 0.1826
C -4.0629 4.8121 0.1752
C -5.1168 5.7354 0.2428
C -4.8254 7.087 0.2294
C -3.502 7.5006 0.1527
N -2.5053 6.6204 0.0913
C -2.7596 5.3121 0.0999
H -6.1362 5.387 0.303
H -5.614 7.8202 0.2787
H -3.2303 8.5496 0.1399
H -1.9054 4.629 0.0486
C -0.4323 3.0189 -4.8566
C -0.5243 4.2155 -5.0123
C -0.6329 5.5896 -5.2917
C -0.7045 6.0122 -6.6083
C -0.8127 7.3689 -6.9267
C -0.8513 8.3242 -5.941
C -0.7816 7.9417 -4.5897
C -0.8166 8.8766 -3.5295
C -0.745 8.4425 -2.238
N -0.6397 7.1245 -1.9298
C -0.6043 6.2227 -2.8873
C -0.6711 6.5624 -4.2483
H -0.676 5.2798 -7.4004
H -0.8661 7.6614 -7.9642
H -0.9348 9.3705 -6.189
H -0.9 9.9278 -3.7554
H -0.7699 9.1446 -1.3996
H -0.5203 5.1828 -2.5892
C -0.324 1.6273 -4.6752
C -0.3055 0.7807 -5.7906
C -0.199 -0.5831 -5.6254
C -0.1079 -1.1287 -4.3402
C -0.1262 -0.282 -3.2247
C -0.2336 1.0798 -3.3904
H -0.3754 1.2043 -6.781
H -0.1851 -1.2348 -6.4858
H -0.0553 -0.7086 -2.2365
H -0.2493 1.7365 -2.5351
C 0.0033 -2.5192 -4.1529
C 0.104 -3.7083 -3.9563
C 0.2243 -5.0787 -3.6586
C 0.2622 -6.0698 -4.6507
C 0.3836 -7.3936 -4.2707
C 0.4649 -7.7134 -2.9217
N 0.4283 -6.7692 -1.9841
C 0.312 -5.4858 -2.3242
H 0.197 -5.7938 -5.6917
H 0.4157 -8.1774 -5.0101
H 0.5611 -8.738 -2.5819
H 0.2872 -4.7489 -1.5147

