# closed shell KS, PBE0/def2-SVP/D4
! DFT SP RKS PBE0 def2-SVP D4 Grid6 NOFINALGRID SlowConv TightSCF printbasis

%base "_fe4dd" 

%scf
   MaxIter 2000
end

%pal
   nprocs 128
end

* xyzfile 4 1 fe4dd_xtb.xyz
