# closed shell KS, PBE0/def2-SVP/D4
! DFT SP RKS PBE0 def2-SVP D4 Grid6 NOFINALGRID SlowConv TightSCF printbasis

%base "_zn2ld" 

%scf
   MaxIter 2000
end

%pal
   nprocs 128
end

* xyzfile 4 1 zn2ld_xtb.xyz
